 vasp.5.4.4.16052018 (build Dec 07 2020 11:33:42) complex

 executed on             LinuxIFC date 2020.12.13  00:44:49

 INCAR:
 POTCAR:    PAW_PBE Cl 06Sep2000
 POTCAR:    PAW_PBE Br 06Sep2000
 POTCAR:    PAW_PBE Pt 04Feb2005

 POTCAR:    PAW_PBE Cl 06Sep2000
   VRHFIN =Cl: s2p5

   TITEL  = PAW_PBE Cl 06Sep2000
   POMASS =   35.453; ZVAL   =    7.000    mass and valenz
   ENMAX  =  262.472; ENMIN  =  196.854 eV

 POTCAR:    PAW_PBE Br 06Sep2000
   VRHFIN =Br: s2p5

   TITEL  = PAW_PBE Br 06Sep2000
   POMASS =   79.904; ZVAL   =    7.000    mass and valenz
   ENMAX  =  216.285; ENMIN  =  162.214 eV

 POTCAR:    PAW_PBE Pt 04Feb2005
   VRHFIN =Pt: s1d9

   TITEL  = PAW_PBE Pt 04Feb2005
   POMASS =  195.080; ZVAL   =   10.000    mass and valenz
   ENMAX  =  230.283; ENMIN  =  172.712 eV

  PAW_PBE Cl 06Sep2000                  :
  PAW_PBE Br 06Sep2000                  :
  PAW_PBE Pt 04Feb2005                  :

 POSCAR: ClBrPt2
  positions in direct lattice
  velocities in cartesian coordinates
 exchange correlation table for  LEXCH =        8
   RHO(1)=    0.500       N(1)  =     2000
   RHO(2)=  100.500       N(2)  =     4000

 ion  position               nearest neighbor table
   1  0.000  0.500  0.168-   4 2.48   4 2.49   4 2.49
   2  0.000  0.500  0.386-   3 2.57   3 2.57   3 2.58
   3  0.333  0.167  0.310-   4 2.56   2 2.57   4 2.57   2 2.57   4 2.58   2 2.58
   4  0.667  0.833  0.236-   1 2.48   1 2.49   1 2.49   3 2.56   3 2.57   3 2.58

IMPORTANT INFORMATION: All symmetrisations will be switched off!
NOSYMM: (Re-)initialisation of all symmetry stuff for point group C_1.

 KPOINTS: Automatic mesh

Automatic generation of k-mesh.
Space group operators:
 irot       det(A)        alpha          n_x          n_y          n_z        tau_x        tau_y        tau_z
    1     1.000000     0.000001     1.000000     0.000000     0.000000     0.000000     0.000000     0.000000

 Subroutine IBZKPT returns following result:

 Found     16 irreducible k-points:

 Following reciprocal coordinates:
            Coordinates               Weight
  0.000000  0.000000  0.000000      1.000000
  0.250000 -0.000000  0.000000      1.000000
  0.500000 -0.000000  0.000000      1.000000
 -0.250000  0.000000  0.000000      1.000000
 -0.000000  0.250000  0.000000      1.000000
  0.250000  0.250000  0.000000      1.000000
  0.500000  0.250000  0.000000      1.000000
 -0.250000  0.250000  0.000000      1.000000
 -0.000000  0.500000  0.000000      1.000000
  0.250000  0.500000  0.000000      1.000000
  0.500000  0.500000  0.000000      1.000000
 -0.250000  0.500000  0.000000      1.000000
  0.000000 -0.250000  0.000000      1.000000
  0.250000 -0.250000  0.000000      1.000000
  0.500000 -0.250000  0.000000      1.000000
 -0.250000 -0.250000  0.000000      1.000000

 Following cartesian coordinates:
            Coordinates               Weight
  0.000000  0.000000  0.000000      1.000000
  0.069832  0.039390  0.000000      1.000000
  0.139664  0.078780  0.000000      1.000000
 -0.069832 -0.039390  0.000000      1.000000
  0.000803  0.079370  0.000000      1.000000
  0.070635  0.118760  0.000000      1.000000
  0.140467  0.158150  0.000000      1.000000
 -0.069029  0.039980  0.000000      1.000000
  0.001607  0.158739  0.000000      1.000000
  0.071439  0.198129  0.000000      1.000000
  0.141271  0.237519  0.000000      1.000000
 -0.068225  0.119349  0.000000      1.000000
 -0.000803 -0.079370  0.000000      1.000000
  0.069029 -0.039980  0.000000      1.000000
  0.138861 -0.000590  0.000000      1.000000
 -0.070635 -0.118760  0.000000      1.000000

 SYSTEM =  unknown system
 POSCAR =  ClBrPt2

 Startparameter for this run:
   NWRITE =      2    write-flag & timer
   PREC   = accura    normal or accurate (medium, high low for compatibility)
   ISTART =      0    job   : 0-new  1-cont  2-samecut
   ICHARG =      2    charge: 1-file 2-atom 10-const
   ISPIN  =      1    spin polarized calculation?
   LNONCOLLINEAR =      F non collinear calculations
   LSORBIT =      F    spin-orbit coupling
   INIWAV =      1    electr: 0-lowe 1-rand  2-diag
   LASPH  =      F    aspherical Exc in radial PAW
   METAGGA=      F    non-selfconsistent MetaGGA calc.

 Electronic Relaxation 1
   ENCUT  =  300.0 eV  22.05 Ry    4.70 a.u.   5.09  5.14 28.25*2*pi/ulx,y,z
   ENINI  =  300.0     initial cutoff
   ENAUG  =  503.9 eV  augmentation charge cutoff
   NELM   =     60;   NELMIN=  2; NELMDL= -5     # of ELM steps
   EDIFF  = 0.5E-04   stopping-criterion for ELM
   LREAL  =      F    real-space projection
   NLSPLINE    = F    spline interpolate recip. space projectors
   LCOMPAT=      F    compatible to vasp.4.4
   GGA_COMPAT  = T    GGA compatible to vasp.4.4-vasp.4.6
   LMAXPAW     = -100 max onsite density
   LMAXMIX     =    2 max onsite mixed and CHGCAR
   VOSKOWN=      0    Vosko Wilk Nusair interpolation
   ROPT   =    0.00000   0.00000   0.00000
 Ionic relaxation
   EDIFFG = 0.5E-03   stopping-criterion for IOM
   NSW    =    100    number of steps for IOM
   NBLOCK =      1;   KBLOCK =    100    inner block; outer block
   IBRION =      1    ionic relax: 0-MD 1-quasi-New 2-CG
   NFREE  =      0    steps in history (QN), initial steepest desc. (CG)
   ISIF   =      3    stress and relaxation
   IWAVPR =     11    prediction:  0-non 1-charg 2-wave 3-comb
   ISYM   =     -1    0-nonsym 1-usesym 2-fastsym
   LCORR  =      T    Harris-Foulkes like correction to forces

   POTIM  = 0.5000    time-step for ionic-motion
   TEIN   =    0.0    initial temperature
   TEBEG  =    0.0;   TEEND  =   0.0 temperature during run
   SMASS  =  -3.00    Nose mass-parameter (am)
   estimated Nose-frequenzy (Omega)   =  0.10E-29 period in steps =****** mass=  -0.296E-27a.u.
   SCALEE = 1.0000    scale energy and forces
   NPACO  =    256;   APACO  = 16.0  distance and # of slots for P.C.
   PSTRESS=    0.0 pullay stress

  Mass of Ions in am
   POMASS =  35.45 79.90195.08
  Ionic Valenz
   ZVAL   =   7.00  7.00 10.00
  Atomic Wigner-Seitz radii
  virtual crystal weights
   VCA    =   1.00  1.00  1.00
   NELECT =      34.0000    total number of electrons
   NUPDOWN=      -1.0000    fix difference up-down

 DOS related values:
   EMIN   =  10.00;   EMAX   =-10.00  energy-range for DOS
   EFERMI =   0.00
   ISMEAR =     0;   SIGMA  =   0.10  broadening in eV -4-tet -1-fermi 0-gaus

 Electronic relaxation 2 (details)
   IALGO  =     38    algorithm
   LDIAG  =      T    sub-space diagonalisation (order eigenvalues)
   LSUBROT=      F    optimize rotation matrix (better conditioning)
   TURBO    =      0    0=normal 1=particle mesh
   IRESTART =      0    0=no restart 2=restart with 2 vectors
   NREBOOT  =      0    no. of reboots
   NMIN     =      0    reboot dimension
   EREF     =   0.00    reference energy to select bands
   IMIX   =      4    mixing-type and parameters
     AMIX     =   0.40;   BMIX     =  1.00
     AMIX_MAG =   1.60;   BMIX_MAG =  1.00
     AMIN     =   0.10
     WC   =   100.;   INIMIX=   1;  MIXPRE=   1;  MAXMIX= -45

 Intra band minimization:
   WEIMIN = 0.0010     energy-eigenvalue tresh-hold
   EBREAK =  0.57E-06  absolut break condition
   DEPER  =   0.30     relativ break condition

   TIME   =   0.40     timestep for ELM

  volume/ion in A,a.u.               =      56.71       382.67
  Fermi-wavevector in a.u.,A,eV,Ry     =   0.869638  1.643378 10.289688  0.756271
  Thomas-Fermi vector in A             =   1.988489

 Write flags
   LWAVE        =      T    write WAVECAR
   LDOWNSAMPLE  =      F    k-point downsampling of WAVECAR
   LCHARG       =      T    write CHGCAR
   LVTOT        =      F    write LOCPOT, total local potential
   LVHAR        =      F    write LOCPOT, Hartree potential only
   LELF         =      F    write electronic localiz. function (ELF)
   LORBIT       =      0    0 simple, 1 ext, 2 COOP (PROOUT), +10 PAW based schemes

 Dipole corrections
   LMONO  =      F    monopole corrections only (constant potential shift)
   LDIPOL =      T    correct potential (dipole corrections)
   IDIPOL =      3    1-x, 2-y, 3-z, 4-all directions
   EPSILON=  1.0000000 bulk dielectric constant

 Exchange correlation treatment:
   GGA     =    --    GGA type
   VOSKOWN=      0    Vosko Wilk Nusair interpolation
   LHFCALC =     F    Hartree Fock is set to
   LHFONE  =     F    Hartree Fock one center treatment
   AEXX    =    0.0000 exact exchange contribution

 Linear response parameters
   LEPSILON=     F    determine dielectric tensor
   LRPA    =     F    only Hartree local field effects (RPA)
   LNABLA  =     F    use nabla operator in PAW spheres
   LVEL    =     F    velocity operator in full k-point grid
   LINTERFAST=   F  fast interpolation
   KINTER  =     0    interpolate to denser k-point grid
   CSHIFT  =0.1000    complex shift for real part using Kramers Kronig
   OMEGAMAX=  -1.0    maximum frequency
   DEG_THRESHOLD= 0.2000000E-02 threshold for treating states as degnerate
   RTIME   =   -0.100 relaxation time in fs
  (WPLASMAI=    0.000 imaginary part of plasma frequency in eV, 0.658/RTIME)
   DFIELD  = 0.0000000 0.0000000 0.0000000 field for delta impulse in time

 Orbital magnetization related:
   ORBITALMAG=     F  switch on orbital magnetization
   LCHIMAG   =     F  perturbation theory with respect to B field
   DQ        =  0.001000  dq finite difference perturbation B field
   LLRAUG    =     F  two centre corrections for induced B field

 quasi-Newton-method for relaxation of ions
 charge density and potential will be updated during run
 non-spin polarized calculation
 Variant of blocked Davidson
 Davidson routine will perform the subspace rotation
 perform sub-space diagonalisation
    after iterative eigenvector-optimisation
 modified Broyden-mixing scheme, WC =      100.0
 initial mixing is a Kerker type mixing with AMIX =  0.4000 and BMIX =      1.0000
 Hartree-type preconditioning will be used
 using additional bands            5
 reciprocal scheme for non local part
 use partial core corrections
 calculate Harris-corrections to forces
   (improved forces if not selfconsistent)
 use gradient corrections
 use of overlap-Matrix (Vanderbilt PP)
 Gauss-broadening in eV      SIGMA  =   0.10

  energy-cutoff  :      300.00
  volume of cell :      226.82
      direct lattice vectors                 reciprocal lattice vectors
     3.600575528 -0.036443352  0.000000000     0.279328124  0.157559855  0.000000000
    -1.786911496  3.167904907  0.000000000     0.003213371  0.317478598  0.000000000
     0.000000000  0.000000000 20.000000000     0.000000000  0.000000000  0.050000000

  length of vectors
     3.600759955  3.637124440 20.000000000     0.320701277  0.317494860  0.050000000

 k-points in units of 2pi/SCALE and weight: Automatic mesh
   0.00000000  0.00000000  0.00000000       0.062
   0.06983203  0.03938996  0.00000000       0.062
   0.13966406  0.07877993  0.00000000       0.062
  -0.06983203 -0.03938996  0.00000000       0.062
   0.00080334  0.07936965  0.00000000       0.062
   0.07063537  0.11875961  0.00000000       0.062
   0.14046740  0.15814958  0.00000000       0.062
  -0.06902869  0.03997969  0.00000000       0.062
   0.00160669  0.15873930  0.00000000       0.062
[...]
   0.25000000 -0.25000000  0.00000000       0.062
   0.50000000 -0.25000000  0.00000000       0.062
  -0.25000000 -0.25000000  0.00000000       0.062

 position of ions in fractional coordinates (direct lattice)
   0.00003284  0.49996180  0.16834626
   0.00003221  0.49995994  0.38572384
   0.33336542  0.16662742  0.31048675
   0.66669892  0.83329448  0.23567645

 position of ions in cartesian coordinates  (Angst):
  -0.89326924  1.58383024  3.36692514
  -0.89326819  1.58382437  7.71447671
   0.90255892  0.51571087  6.20973506
   0.91147634  2.61550093  4.71352901

 k-point  1 :   0.0000 0.0000 0.0000  plane waves:    2657
 k-point  2 :   0.2500-0.0000 0.0000  plane waves:    2672
 k-point  3 :   0.5000-0.0000 0.0000  plane waves:    2680
 k-point  4 :  -0.2500 0.0000 0.0000  plane waves:    2672
 k-point  5 :  -0.0000 0.2500 0.0000  plane waves:    2660
 k-point  6 :   0.2500 0.2500 0.0000  plane waves:    2691
 k-point  7 :   0.5000 0.2500 0.0000  plane waves:    2691
 k-point  8 :  -0.2500 0.2500 0.0000  plane waves:    2666
 k-point  9 :  -0.0000 0.5000 0.0000  plane waves:    2674
 k-point 10 :   0.2500 0.5000 0.0000  plane waves:    2695
 k-point 11 :   0.5000 0.5000 0.0000  plane waves:    2670
 k-point 12 :  -0.2500 0.5000 0.0000  plane waves:    2695
 k-point 13 :   0.0000-0.2500 0.0000  plane waves:    2660
 k-point 14 :   0.2500-0.2500 0.0000  plane waves:    2666
 k-point 15 :   0.5000-0.2500 0.0000  plane waves:    2691
 k-point 16 :  -0.2500-0.2500 0.0000  plane waves:    2691

 maximum and minimum number of plane-waves per node :      2695     2657

 maximum number of plane-waves:      2695
 maximum index in each direction:
   IXMAX=    5   IYMAX=    5   IZMAX=   28
   IXMIN=   -5   IYMIN=   -5   IZMIN=  -28

 serial   3D FFT for wavefunctions
 parallel 3D FFT for charge:
    minimum data exchange during FFTs selected (reduces bandwidth)

 Broyden mixing: mesh for mixing (old mesh)
   NGX = 11   NGY = 11   NGZ = 57
  (NGX  = 40   NGY  = 48   NGZ  =240)
  gives a total of   6897 points

 initial charge density was supplied:
 charge density of overlapping atoms calculated
 number of electron      34.0000000 magnetization
 keeping initial charge density in first step

 Maximum index for augmentation-charges         7469 (set IRDMAX)

 First call to EWALD:  gamma=   0.291
 Maximum number of real-space cells 5x 5x 1
 Maximum number of reciprocal cells 2x 2x 8

--------------------------------------- Iteration      1(   1)  ---------------------------------------

 eigenvalue-minimisations  :   712
 total energy-change (2. order) : 0.2213969E+03  (-0.1019526E+04)
 number of electron      34.0000000 magnetization
 augmentation part       34.0000000 magnetization

 DIPCOR: dipole corrections for dipol
 direction  3 min pos   183,
 dipolmoment           0.000000      0.000000     -0.000023 electrons x Angstroem
 Tr[quadrupol]       -78.747402

 energy correction for charged system         0.000000 eV
 dipol+quadrupol energy correction           -0.000000 eV
 added-field ion interaction          0.000202 eV  (added to PSCEN)

 Free energy of the ion-electron system (eV)
  alpha Z        PSCENC =        42.79302690
  Ewald energy   TEWEN  =      6028.82015739
  -Hartree energ DENC   =     -8219.11464450
  -exchange      EXHF   =         0.00000000
  -V(xc)+E(xc)   XCENC  =        37.27413887
  PAW double counting   =      2012.60260865    -1949.97488812
  entropy T*S    EENTRO =        -0.01216745
  eigenvalues    EBANDS =        32.70413882
  atomic energy  EATOM  =      2236.30457717
  Solvation  Ediel_sol  =         0.00000000
  free energy    TOTEN  =       221.39694772 eV

  energy without entropy =      221.40911517  energy(sigma->0) =      221.40303144

[...]

 eigenvalue-minimisations  :  1056
 total energy-change (2. order) :-0.2192477E+03  (-0.2102294E+03)
 number of electron      34.0000000 magnetization
 augmentation part       34.0000000 magnetization

[...]

 Broyden mixing:
  rms(total) = 0.16182E+01    rms(broyden)= 0.16180E+01
  rms(prec ) = 0.16413E+01
  weight for this iteration     100.00

[...]

 eigenvalues of (default mixing * dielectric matrix)
  average eigenvalue GAMMA=   1.8889
  1.8889

[...]

 average (electrostatic) potential at core
  the test charge radii are     0.9406  1.0178  1.2059
  (the norm of the test charge is              1.0000)
       1 -97.7602       2 -67.9053       3 -75.0706       4 -75.0233

 E-fermi :  -1.4019     XC(G=0):  -4.3665     alpha+bet : -3.9942

 k-point     1 :       0.0000    0.0000    0.0000
  band No.  band energies     occupation
      1     -17.6280      2.00000
      2     -17.4880      2.00000
      3      -8.1288      2.00000
      4      -6.8880      2.00000
      5      -6.8775      2.00000
      6      -6.8736      2.00000
      7      -5.8722      2.00000
      8      -5.8009      2.00000
      9      -4.4361      2.00000
     10      -4.4052      2.00000
     11      -3.7994      2.00000
     12      -2.8249      2.00000
     13      -2.7821      2.00000
     14      -2.7083      2.00000
     15      -2.1134      2.00000
     16      -2.0985      2.00000
     17      -2.0411      2.00000
     18      -0.2236      0.00000
     19      -0.1684      0.00000
     20       2.2163      0.00000
     21       3.2424      0.00000
     22       3.8438      0.00000

[...]

 soft charge-density along one line, spin component           1
         0         1         2         3         4         5         6         7         8         9
 total charge-density along one line

------------------------ aborting loop because EDIFF is reached ----------------------------------------

         DFTD3 V3.0 Rev 1
 IVDW         = 11
 DF pbe
 parameters
 VDW_S6       =    1.0000
 VDW_S8       =    0.7220
 VDW_SR       =    1.2170
 rs18     =    1.0000
 alpha6   =   14.0000
 alpha8   =   16.0000
 k1-k3    =   16.0000    1.3333   -4.0000
 VDW_RADIUS   =   50.2022 A
 VDW_CNRADIUS =   21.1671 A
 Edisp (eV)   -1.24404

 E6    (eV) :    -0.3608
 E8    (eV) :    -0.8832
 % E8        : 70.99

  FORCE on cell =-STRESS in cart. coord.  units (eV):
  Direction    XX          YY          ZZ          XY          YZ          ZX
  Alpha Z    42.79283    42.79283    42.79283
  Ewald    7552.68875  7547.75046 -9071.61906     1.37715     6.22424     3.70646
  Hartree  8028.68351  8026.58786 -7845.88691     0.57324     2.20761     1.30689
  E(xc)    -141.17489  -141.14846  -141.60690    -0.00765     0.00426     0.00238
  Local  -16209.65537-16202.23689 16283.29219    -2.05575    -8.09945    -4.81398
  n-local   142.92062   142.37749   144.04595     0.15729     0.24729     0.15061
  augment    78.79597    78.76003    79.60254     0.00920    -0.05747    -0.03464
  Kinetic   506.69264   506.15397   509.87682     0.15136    -0.23981    -0.14214
  Fock        0.00000     0.00000     0.00000     0.00000     0.00000     0.00000
  vdW        -0.74334    -0.77127    -0.23685     0.00808    -0.00535    -0.00313
  Total       1.00073     0.26601     0.26061     0.21292     0.28130     0.17244
  in kB       7.06870     1.87898     1.84081     1.50400     1.98700     1.21805

 VOLUME and BASIS-vectors are now :
  energy-cutoff  :      300.00
  volume of cell :      226.82
      direct lattice vectors                 reciprocal lattice vectors
     3.600575528 -0.036443352  0.000000000     0.279328124  0.157559855  0.000000000
    -1.786911496  3.167904907  0.000000000     0.003213371  0.317478598  0.000000000
     0.000000000  0.000000000 20.000000000     0.000000000  0.000000000  0.050000000

[...]

 FORCES acting on ions
    electron-ion (+dipol)            ewald-force                    non-local-force                 convergence-correction
   0.836E+00 0.141E+01 0.100E+04   -.878E+00 -.147E+01 -.101E+04   0.128E-01 0.220E-01 0.558E+01   0.564E-03 0.636E-03 -.103E+00
   -.685E+00 -.115E+01 -.101E+04   0.714E+00 0.120E+01 0.101E+04   0.702E-02 0.110E-01 -.268E+01   -.325E-03 -.516E-03 0.113E+00
   -.267E+00 -.448E+00 -.574E+03   0.255E+00 0.428E+00 0.567E+03   0.319E-01 0.545E-01 0.663E+01   0.155E-03 0.335E-03 0.162E+00
   0.928E-01 0.158E+00 0.579E+03   -.910E-01 -.154E+00 -.573E+03   -.295E-01 -.508E-01 -.651E+01   -.795E-04 -.653E-04 -.865E-01
   -.226E-01 -.370E-01 -.310E+01   -.177E-13 0.221E-13 -.227E-12   0.223E-01 0.367E-01 0.302E+01   0.314E-03 0.388E-03 0.849E-01

 POSITION                                       TOTAL-FORCE (eV/Angst)
     -0.89327      1.58383      3.36693        -0.027668     -0.044828     -0.081234
     -0.89327      1.58382      7.71448         0.034680      0.056635      0.093050
      0.90256      0.51571      6.20974         0.020516      0.033625      0.039316
      0.91148      2.61550      4.71353        -0.027527     -0.045432     -0.051132
    total drift:                                0.000019      0.000078     -0.004636

  FREE ENERGIE OF THE ION-ELECTRON SYSTEM (eV)
  free  energy   TOTEN  =       -17.79138841 eV

  energy  without entropy=      -17.79138841  energy(sigma->0) =      -17.79138841

 Quasi-Newton relaxation of ions (Broydens 2nd method)
  g(Force)  = 0.149E-02   g(Stress)= 0.853E-03

 Reset! Starting new Quasi-Newton update for ions

[...]

 eigenvalue-minimisations  :   604
 total energy-change (2. order) :-0.9763891E-05  (-0.3697795E-05)
 number of electron      33.9999997 magnetization
 augmentation part        3.8463984 magnetization

[...]

         DFTD3 V3.0 Rev 1
 Edisp (eV)   -1.24104

[...]

 d Force = 0.1073393E-02[ 0.651E-03, 0.150E-02]  d Energy = 0.1428935E-02-0.356E-03
 d Force = 0.1098066E+02[ 0.110E+02, 0.110E+02]  d Ewald  = 0.3509648E+02-0.241E+02

[...]

 retain information from N=  1 steps
 eigenvalues of (default step * inverse Hessian matrix)
  average eigenvalue of G=   0.6895
 eigenvalue spectrum of G is  0.6895

[...]

 d Force = 0.4114657E-03[ 0.313E-03, 0.510E-03]  d Energy = 0.5320166E-03-0.121E-03
 d Force = 0.1779600E+01[ 0.178E+01, 0.178E+01]  d Ewald  =-0.6161571E+01 0.794E+01

[...]

 Broyden mixing:
  rms(total) = 0.45641E-02    rms(broyden)= 0.45638E-02
  rms(prec ) = 0.49092E-02
  weight for this iteration     100.00

 eigenvalues of (default mixing * dielectric matrix)
  average eigenvalue GAMMA=   0.9840
  0.9840  0.9840

[...]

--------------------------------------- Iteration      4(   4)  ---------------------------------------

 eigenvalue-minimisations  :   574
 total energy-change (2. order) : 0.3180832E-05  (-0.8271694E-05)
 number of electron      33.9999997 magnetization
 augmentation part        3.8457411 magnetization

 DIPCOR: dipole corrections for dipol
 direction  3 min pos   195,
 dipolmoment           0.000000      0.000000     -0.036707 electrons x Angstroem
 Tr[quadrupol]       -78.836625

 energy correction for charged system         0.000000 eV
 dipol+quadrupol energy correction           -0.000537 eV
 added-field ion interaction         -0.668954 eV  (added to PSCEN)

 Free energy of the ion-electron system (eV)
  alpha Z        PSCENC =        42.07960644
  Ewald energy   TEWEN  =      6006.09902016
  -Hartree energ DENC   =     -8186.10743170
  -exchange      EXHF   =         0.00000000
  -V(xc)+E(xc)   XCENC  =        36.93418385
  PAW double counting   =      2757.46304404    -2700.84823716
  entropy T*S    EENTRO =        -0.00000000
  eigenvalues    EBANDS =      -208.47571428
  atomic energy  EATOM  =      2236.30457717
  Solvation  Ediel_sol  =         0.00000000
  free energy    TOTEN  =       -16.55095148 eV

  energy without entropy =      -16.55095148  energy(sigma->0) =      -16.55095148

 average (electrostatic) potential at core
  the test charge radii are     0.9406  1.0178  1.2059
  (the norm of the test charge is              1.0000)
       1 -97.7463       2 -67.8972       3 -75.0661       4 -75.0111

 E-fermi :  -1.3935     XC(G=0):  -4.3294     alpha+bet : -3.9791

[...]

 k-point    16 :      -0.2500   -0.2500    0.0000
  band No.  band energies     occupation
      1     -17.1186      2.00000
      2     -16.9578      2.00000
      3      -7.5155      2.00000
      4      -7.0639      2.00000
      5      -6.9827      2.00000
      6      -6.2900      2.00000
      7      -6.1812      2.00000
      8      -5.8562      2.00000
      9      -5.3584      2.00000
     10      -5.1173      2.00000
     11      -3.7831      2.00000
     12      -3.3772      2.00000
     13      -3.1430      2.00000
     14      -2.9276      2.00000
     15      -2.8706      2.00000
     16      -2.2732      2.00000
     17      -1.9615      2.00000
     18      -0.1941      0.00000
     19       1.3764      0.00000
     20       3.1536      0.00000
     21       4.6541      0.00000
     22       5.6043      0.00000

 soft charge-density along one line, spin component           1
         0         1         2         3         4         5         6         7         8         9
 total charge-density along one line

------------------------ aborting loop because EDIFF is reached ----------------------------------------

         DFTD3 V3.0 Rev 1
 Edisp (eV)   -1.24256

 E6    (eV) :    -0.3603
 E8    (eV) :    -0.8823
 % E8        : 71.01

  FORCE on cell =-STRESS in cart. coord.  units (eV):
  Direction    XX          YY          ZZ          XY          YZ          ZX
  Alpha Z    42.74910    42.74910    42.74910
  Ewald    7526.38601  7524.53500 -9044.82191     0.50151     5.27652     2.89835
  Hartree  8004.17045  8003.13501 -7821.24285     0.27061     1.89374     1.03962
  E(xc)    -141.13614  -141.10939  -141.55404    -0.00842     0.00853     0.00408
  Local  -16158.83947-16155.38213 16232.12750    -0.93429    -6.82161    -3.75606
  n-local   142.56681   142.18810   143.74033     0.11346     0.13236     0.07859
  augment    78.87093    78.75928    79.61547     0.02457    -0.03842    -0.02314
  Kinetic   506.72264   505.93396   509.55773     0.19206    -0.25647    -0.14437
  Fock        0.00000     0.00000     0.00000     0.00000     0.00000     0.00000
  vdW        -0.74280    -0.77717    -0.24992     0.00893    -0.00705    -0.00370
  Total       0.74752     0.03176    -0.07860     0.16843     0.18761     0.09337
  in kB       5.27472     0.22414    -0.55459     1.18853     1.32383     0.65887

 VOLUME and BASIS-vectors are now :
  energy-cutoff  :      300.00
  volume of cell :      227.06
      direct lattice vectors                 reciprocal lattice vectors
     3.600575528 -0.036480629  0.000000000     0.279328124  0.157398852  0.000000000
    -1.786911496  3.171145340  0.000000000     0.003213371  0.317154183  0.000000000
     0.000000000  0.000000000 20.000000000     0.000000000  0.000000000  0.050000000

  length of vectors
     3.600760332  3.639947179 20.000000000     0.320622207  0.317170461  0.050000000

 FORCES acting on ions
    electron-ion (+dipol)            ewald-force                    non-local-force                 convergence-correction
   0.708E+00 0.129E+01 0.100E+04   -.754E+00 -.139E+01 -.101E+04   0.239E-01 0.479E-01 0.563E+01   0.414E-02 0.151E-01 -.417E-01
   -.514E+00 -.928E+00 -.101E+04   0.536E+00 0.975E+00 0.101E+04   0.128E-02 0.183E-02 -.270E+01   -.148E-02 -.844E-02 -.600E-01
   -.204E+00 -.355E+00 -.572E+03   0.178E+00 0.306E+00 0.566E+03   0.299E-01 0.535E-01 0.662E+01   0.115E-02 0.198E-02 -.321E+00
   -.290E-01 -.893E-01 0.578E+03   0.407E-01 0.113E+00 -.572E+03   -.171E-01 -.285E-01 -.648E+01   -.283E-02 -.625E-02 -.276E+00
   -.386E-01 -.781E-01 -.238E+01   0.328E-14 -.150E-13 -.114E-12   0.380E-01 0.748E-01 0.308E+01   0.972E-03 0.242E-02 -.699E+00

 POSITION                                       TOTAL-FORCE (eV/Angst)
     -0.89620      1.57988      3.36084        -0.017475     -0.034850     -0.030848
     -0.88970      1.59231      7.72151         0.020491      0.039676      0.041251
      0.90349      0.51807      6.21079         0.004909      0.005614      0.011621
      0.90990      2.61505      4.71153        -0.007925     -0.010440     -0.022025
    total drift:                                0.000345     -0.000914      0.000298

  FREE ENERGIE OF THE ION-ELECTRON SYSTEM (eV)
  free  energy   TOTEN  =       -17.79350851 eV

  energy  without entropy=      -17.79350851  energy(sigma->0) =      -17.79350851

 d Force = 0.2460685E-03[ 0.233E-03, 0.260E-03]  d Energy = 0.1591538E-03 0.869E-04
 d Force = 0.2238628E+01[ 0.224E+01, 0.224E+01]  d Ewald  =-0.6213768E+01 0.845E+01

 Quasi-Newton relaxation of ions (Broydens 2nd method)
  g(Force)  = 0.338E-03   g(Stress)= 0.122E-04

 retain information from N=  2 steps
 eigenvalues of (default step * inverse Hessian matrix)
  average eigenvalue of G=   3.7585
 eigenvalue spectrum of G is  3.7585  3.7585

 reached required accuracy - stopping structural energy minimisation
 writing wavefunctions