 vasp.5.4.4.16052018 (build Dec 07 2020 11:33:42) complex

 executed on             LinuxIFC date 2020.12.13  00:45:18

 INCAR:
 POTCAR:    PAW_PBE Cl 06Sep2000
 POTCAR:    PAW_PBE Br 06Sep2000
 POTCAR:    PAW_PBE Pt 04Feb2005

 POTCAR:    PAW_PBE Cl 06Sep2000
   VRHFIN =Cl: s2p5

   TITEL  = PAW_PBE Cl 06Sep2000
   POMASS =   35.453; ZVAL   =    7.000    mass and valenz
   ENMAX  =  262.472; ENMIN  =  196.854 eV

 POTCAR:    PAW_PBE Br 06Sep2000
   VRHFIN =Br: s2p5

   TITEL  = PAW_PBE Br 06Sep2000
   POMASS =   79.904; ZVAL   =    7.000    mass and valenz
   ENMAX  =  216.285; ENMIN  =  162.214 eV

 POTCAR:    PAW_PBE Pt 04Feb2005
   VRHFIN =Pt: s1d9

   TITEL  = PAW_PBE Pt 04Feb2005
   POMASS =  195.080; ZVAL   =   10.000    mass and valenz
   ENMAX  =  230.283; ENMIN  =  172.712 eV

  PAW_PBE Cl 06Sep2000                  :
  PAW_PBE Br 06Sep2000                  :
  PAW_PBE Pt 04Feb2005                  :

 POSCAR: ClBrPt2
  positions in direct lattice
  velocities in cartesian coordinates
 exchange correlation table for  LEXCH =        8
   RHO(1)=    0.500       N(1)  =     2000
   RHO(2)=  100.500       N(2)  =     4000

 ion  position               nearest neighbor table
   1  0.000  0.500  0.168-   4 2.49   4 2.49   4 2.49
   2  0.000  0.500  0.386-   3 2.57   3 2.58   3 2.58
   3  0.333  0.167  0.310-   4 2.57   4 2.57   2 2.57   4 2.58   2 2.58   2 2.58
   4  0.667  0.833  0.236-   1 2.49   1 2.49   1 2.49   3 2.57   3 2.57   3 2.58

IMPORTANT INFORMATION: All symmetrisations will be switched off!
NOSYMM: (Re-)initialisation of all symmetry stuff for point group C_1.

 KPOINTS: Automatic mesh

Automatic generation of k-mesh.
Space group operators:
 irot       det(A)        alpha          n_x          n_y          n_z        tau_x        tau_y        tau_z
    1     1.000000     0.000000     1.000000     0.000000     0.000000     0.000000     0.000000     0.000000

 Subroutine IBZKPT returns following result:

 Found     16 irreducible k-points:

 Following reciprocal coordinates:
            Coordinates               Weight
  0.000000  0.000000  0.000000      1.000000
  0.250000  0.000000  0.000000      1.000000
  0.500000  0.000000  0.000000      1.000000
 -0.250000 -0.000000  0.000000      1.000000
  0.000000  0.250000  0.000000      1.000000
  0.250000  0.250000  0.000000      1.000000
  0.500000  0.250000  0.000000      1.000000
 -0.250000  0.250000  0.000000      1.000000
  0.000000  0.500000  0.000000      1.000000
  0.250000  0.500000  0.000000      1.000000
  0.500000  0.500000  0.000000      1.000000
 -0.250000  0.500000  0.000000      1.000000
 -0.000000 -0.250000  0.000000      1.000000
  0.250000 -0.250000  0.000000      1.000000
  0.500000 -0.250000  0.000000      1.000000
 -0.250000 -0.250000  0.000000      1.000000

 Following cartesian coordinates:
            Coordinates               Weight
  0.000000  0.000000  0.000000      1.000000
  0.069479  0.039191  0.000000      1.000000
  0.138958  0.078382  0.000000      1.000000
 -0.069479 -0.039191  0.000000      1.000000
  0.000799  0.079367  0.000000      1.000000
  0.070278  0.118558  0.000000      1.000000
  0.139758  0.157749  0.000000      1.000000
 -0.068680  0.040176  0.000000      1.000000
  0.001599  0.158735  0.000000      1.000000
  0.071078  0.197926  0.000000      1.000000
  0.140557  0.237117  0.000000      1.000000
 -0.067881  0.119544  0.000000      1.000000
 -0.000799 -0.079367  0.000000      1.000000
  0.068680 -0.040176  0.000000      1.000000
  0.138159 -0.000986  0.000000      1.000000
 -0.070278 -0.118558  0.000000      1.000000

 SYSTEM =  unknown system
 POSCAR =  ClBrPt2

 Startparameter for this run:
   NWRITE =      2    write-flag & timer
   PREC   = accura    normal or accurate (medium, high low for compatibility)
   ISTART =      0    job   : 0-new  1-cont  2-samecut
   ICHARG =      2    charge: 1-file 2-atom 10-const
   ISPIN  =      1    spin polarized calculation?
   LNONCOLLINEAR =      F non collinear calculations
   LSORBIT =      F    spin-orbit coupling
   INIWAV =      1    electr: 0-lowe 1-rand  2-diag
   LASPH  =      F    aspherical Exc in radial PAW
   METAGGA=      F    non-selfconsistent MetaGGA calc.

 Electronic Relaxation 1
   ENCUT  =  300.0 eV  22.05 Ry    4.70 a.u.   5.11  5.14 28.25*2*pi/ulx,y,z
   ENINI  =  300.0     initial cutoff
   ENAUG  =  503.9 eV  augmentation charge cutoff
   NELM   =     60;   NELMIN=  2; NELMDL= -5     # of ELM steps
   EDIFF  = 0.5E-04   stopping-criterion for ELM
   LREAL  =      F    real-space projection
   NLSPLINE    = F    spline interpolate recip. space projectors
   LCOMPAT=      F    compatible to vasp.4.4
   GGA_COMPAT  = T    GGA compatible to vasp.4.4-vasp.4.6
   LMAXPAW     = -100 max onsite density
   LMAXMIX     =    2 max onsite mixed and CHGCAR
   VOSKOWN=      0    Vosko Wilk Nusair interpolation
   ROPT   =    0.00000   0.00000   0.00000
 Ionic relaxation
   EDIFFG = 0.5E-03   stopping-criterion for IOM
   NSW    =    100    number of steps for IOM
   NBLOCK =      1;   KBLOCK =    100    inner block; outer block
   IBRION =      1    ionic relax: 0-MD 1-quasi-New 2-CG
   NFREE  =      0    steps in history (QN), initial steepest desc. (CG)
   ISIF   =      3    stress and relaxation
   IWAVPR =     11    prediction:  0-non 1-charg 2-wave 3-comb
   ISYM   =     -1    0-nonsym 1-usesym 2-fastsym
   LCORR  =      T    Harris-Foulkes like correction to forces

   POTIM  = 0.5000    time-step for ionic-motion
   TEIN   =    0.0    initial temperature
   TEBEG  =    0.0;   TEEND  =   0.0 temperature during run
   SMASS  =  -3.00    Nose mass-parameter (am)
   estimated Nose-frequenzy (Omega)   =  0.10E-29 period in steps =****** mass=  -0.299E-27a.u.
   SCALEE = 1.0000    scale energy and forces
   NPACO  =    256;   APACO  = 16.0  distance and # of slots for P.C.
   PSTRESS=    0.0 pullay stress

  Mass of Ions in am
   POMASS =  35.45 79.90195.08
  Ionic Valenz
   ZVAL   =   7.00  7.00 10.00
  Atomic Wigner-Seitz radii
  virtual crystal weights
   VCA    =   1.00  1.00  1.00
   NELECT =      34.0000    total number of electrons
   NUPDOWN=      -1.0000    fix difference up-down

 DOS related values:
   EMIN   =  10.00;   EMAX   =-10.00  energy-range for DOS
   EFERMI =   0.00
   ISMEAR =     0;   SIGMA  =   0.10  broadening in eV -4-tet -1-fermi 0-gaus

 Electronic relaxation 2 (details)
   IALGO  =     38    algorithm
   LDIAG  =      T    sub-space diagonalisation (order eigenvalues)
   LSUBROT=      F    optimize rotation matrix (better conditioning)
   TURBO    =      0    0=normal 1=particle mesh
   IRESTART =      0    0=no restart 2=restart with 2 vectors
   NREBOOT  =      0    no. of reboots
   NMIN     =      0    reboot dimension
   EREF     =   0.00    reference energy to select bands
   IMIX   =      4    mixing-type and parameters
     AMIX     =   0.40;   BMIX     =  1.00
     AMIX_MAG =   1.60;   BMIX_MAG =  1.00
     AMIN     =   0.10
     WC   =   100.;   INIMIX=   1;  MIXPRE=   1;  MAXMIX= -45

 Intra band minimization:
   WEIMIN = 0.0010     energy-eigenvalue tresh-hold
   EBREAK =  0.57E-06  absolut break condition
   DEPER  =   0.30     relativ break condition

   TIME   =   0.40     timestep for ELM

  volume/ion in A,a.u.               =      56.99       384.61
  Fermi-wavevector in a.u.,A,eV,Ry     =   0.868171  1.640605 10.254991  0.753721
  Thomas-Fermi vector in A             =   1.986811

 Write flags
   LWAVE        =      T    write WAVECAR
   LDOWNSAMPLE  =      F    k-point downsampling of WAVECAR
   LCHARG       =      T    write CHGCAR
   LVTOT        =      F    write LOCPOT, total local potential
   LVHAR        =      F    write LOCPOT, Hartree potential only
   LELF         =      F    write electronic localiz. function (ELF)
   LORBIT       =      0    0 simple, 1 ext, 2 COOP (PROOUT), +10 PAW based schemes

 Dipole corrections
   LMONO  =      F    monopole corrections only (constant potential shift)
   LDIPOL =      T    correct potential (dipole corrections)
   IDIPOL =      3    1-x, 2-y, 3-z, 4-all directions
   EPSILON=  1.0000000 bulk dielectric constant

 Exchange correlation treatment:
   GGA     =    --    GGA type
   VOSKOWN=      0    Vosko Wilk Nusair interpolation
   LHFCALC =     F    Hartree Fock is set to
   LHFONE  =     F    Hartree Fock one center treatment
   AEXX    =    0.0000 exact exchange contribution

 Linear response parameters
   LEPSILON=     F    determine dielectric tensor
   LRPA    =     F    only Hartree local field effects (RPA)
   LNABLA  =     F    use nabla operator in PAW spheres
   LVEL    =     F    velocity operator in full k-point grid
   LINTERFAST=   F  fast interpolation
   KINTER  =     0    interpolate to denser k-point grid
   CSHIFT  =0.1000    complex shift for real part using Kramers Kronig
   OMEGAMAX=  -1.0    maximum frequency
   DEG_THRESHOLD= 0.2000000E-02 threshold for treating states as degnerate
   RTIME   =   -0.100 relaxation time in fs
  (WPLASMAI=    0.000 imaginary part of plasma frequency in eV, 0.658/RTIME)
   DFIELD  = 0.0000000 0.0000000 0.0000000 field for delta impulse in time

 Orbital magnetization related:
   ORBITALMAG=     F  switch on orbital magnetization
   LCHIMAG   =     F  perturbation theory with respect to B field
   DQ        =  0.001000  dq finite difference perturbation B field
   LLRAUG    =     F  two centre corrections for induced B field

 quasi-Newton-method for relaxation of ions
 charge density and potential will be updated during run
 non-spin polarized calculation
 Variant of blocked Davidson
 Davidson routine will perform the subspace rotation
 perform sub-space diagonalisation
    after iterative eigenvector-optimisation
 modified Broyden-mixing scheme, WC =      100.0
 initial mixing is a Kerker type mixing with AMIX =  0.4000 and BMIX =      1.0000
 Hartree-type preconditioning will be used
 using additional bands            5
 reciprocal scheme for non local part
 use partial core corrections
 calculate Harris-corrections to forces
   (improved forces if not selfconsistent)
 use gradient corrections
 use of overlap-Matrix (Vanderbilt PP)
 Gauss-broadening in eV      SIGMA  =   0.10

  energy-cutoff  :      300.00
  volume of cell :      227.98
      direct lattice vectors                 reciprocal lattice vectors
     3.618760253 -0.036443352  0.000000000     0.277916446  0.156763573  0.000000000
    -1.786911496  3.167904907  0.000000000     0.003197131  0.317469438  0.000000000
     0.000000000  0.000000000 20.000000000     0.000000000  0.000000000  0.050000000

  length of vectors
     3.618943753  3.637124440 20.000000000     0.319080506  0.317485536  0.050000000

 k-points in units of 2pi/SCALE and weight: Automatic mesh
   0.00000000  0.00000000  0.00000000       0.062
   0.06947911  0.03919089  0.00000000       0.062
   0.13895822  0.07838179  0.00000000       0.062
  -0.06947911 -0.03919089  0.00000000       0.062
   0.00079928  0.07936736  0.00000000       0.062
   0.07027839  0.11855825  0.00000000       0.062
   0.13975751  0.15774915  0.00000000       0.062
  -0.06867983  0.04017647  0.00000000       0.062
   0.00159857  0.15873472  0.00000000       0.062
[...]
   0.25000000  0.00000000  0.00000000       0.062
   0.50000000  0.00000000  0.00000000       0.062
  -0.25000000 -0.00000000  0.00000000       0.062
   0.00000000  0.25000000  0.00000000       0.062
   0.25000000  0.25000000  0.00000000       0.062
   0.50000000  0.25000000  0.00000000       0.062
  -0.25000000  0.25000000  0.00000000       0.062
   0.00000000  0.50000000  0.00000000       0.062
   0.25000000  0.50000000  0.00000000       0.062
   0.50000000  0.50000000  0.00000000       0.062
  -0.25000000  0.50000000  0.00000000       0.062
  -0.00000000 -0.25000000  0.00000000       0.062
   0.25000000 -0.25000000  0.00000000       0.062
   0.50000000 -0.25000000  0.00000000       0.062
  -0.25000000 -0.25000000  0.00000000       0.062

 position of ions in fractional coordinates (direct lattice)
   0.00003284  0.49996180  0.16834626
   0.00003221  0.49995994  0.38572384
   0.33336542  0.16662742  0.31048675
   0.66669892  0.83329448  0.23567645

 position of ions in cartesian coordinates  (Angst):
  -0.89326864  1.58383024  3.36692514
  -0.89326760  1.58382437  7.71447671
   0.90862108  0.51571087  6.20973506
   0.92360008  2.61550093  4.71352901

 k-point  1 :   0.0000 0.0000 0.0000  plane waves:    2673
 k-point  2 :   0.2500 0.0000 0.0000  plane waves:    2681
 k-point  3 :   0.5000 0.0000 0.0000  plane waves:    2698
 k-point  4 :  -0.2500-0.0000 0.0000  plane waves:    2681
 k-point  5 :   0.0000 0.2500 0.0000  plane waves:    2679
 k-point  6 :   0.2500 0.2500 0.0000  plane waves:    2705
 k-point  7 :   0.5000 0.2500 0.0000  plane waves:    2709
 k-point  8 :  -0.2500 0.2500 0.0000  plane waves:    2683
 k-point  9 :   0.0000 0.5000 0.0000  plane waves:    2682
 k-point 10 :   0.2500 0.5000 0.0000  plane waves:    2705
 k-point 11 :   0.5000 0.5000 0.0000  plane waves:    2682
 k-point 12 :  -0.2500 0.5000 0.0000  plane waves:    2705
 k-point 13 :  -0.0000-0.2500 0.0000  plane waves:    2679
 k-point 14 :   0.2500-0.2500 0.0000  plane waves:    2683
 k-point 15 :   0.5000-0.2500 0.0000  plane waves:    2709
 k-point 16 :  -0.2500-0.2500 0.0000  plane waves:    2705

 maximum and minimum number of plane-waves per node :      2709     2673

 maximum number of plane-waves:      2709
 maximum index in each direction:
   IXMAX=    5   IYMAX=    5   IZMAX=   28
   IXMIN=   -5   IYMIN=   -5   IZMIN=  -28

 serial   3D FFT for wavefunctions
 parallel 3D FFT for charge:
    minimum data exchange during FFTs selected (reduces bandwidth)

 Broyden mixing: mesh for mixing (old mesh)
   NGX = 11   NGY = 11   NGZ = 57
  (NGX  = 40   NGY  = 48   NGZ  =240)
  gives a total of   6897 points

 initial charge density was supplied:
 charge density of overlapping atoms calculated
 number of electron      34.0000000 magnetization
 keeping initial charge density in first step

 Maximum index for augmentation-charges         7426 (set IRDMAX)

 First call to EWALD:  gamma=   0.290
 Maximum number of real-space cells 5x 5x 1
 Maximum number of reciprocal cells 2x 2x 8

--------------------------------------- Iteration      1(   1)  ---------------------------------------

 eigenvalue-minimisations  :   720
 total energy-change (2. order) : 0.2216885E+03  (-0.1016287E+04)
 number of electron      34.0000000 magnetization
 augmentation part       34.0000000 magnetization

 DIPCOR: dipole corrections for dipol
 direction  3 min pos   183,
 dipolmoment           0.000000      0.000000     -0.000023 electrons x Angstroem
 Tr[quadrupol]       -79.039139

 energy correction for charged system         0.000000 eV
 dipol+quadrupol energy correction           -0.000000 eV
 added-field ion interaction          0.000201 eV  (added to PSCEN)

 Free energy of the ion-electron system (eV)
  alpha Z        PSCENC =        42.57675804
  Ewald energy   TEWEN  =      5990.65653386
  -Hartree energ DENC   =     -8180.46966913
  -exchange      EXHF   =         0.00000000
  -V(xc)+E(xc)   XCENC  =        37.21646279
  PAW double counting   =      2012.60260865    -1949.97488812
  entropy T*S    EENTRO =        -0.01885644
  eigenvalues    EBANDS =        32.79494684
  atomic energy  EATOM  =      2236.30457717
  Solvation  Ediel_sol  =         0.00000000
  free energy    TOTEN  =       221.68847365 eV

  energy without entropy =      221.70733009  energy(sigma->0) =      221.69790187

[...]

 eigenvalue-minimisations  :  1062
 total energy-change (2. order) :-0.2198366E+03  (-0.2110488E+03)
 number of electron      34.0000000 magnetization
 augmentation part       34.0000000 magnetization

[...]

 Broyden mixing:
  rms(total) = 0.15969E+01    rms(broyden)= 0.15967E+01
  rms(prec ) = 0.16204E+01
  weight for this iteration     100.00

[...]

 eigenvalues of (default mixing * dielectric matrix)
  average eigenvalue GAMMA=   1.8744
  1.8744

[...]

 average (electrostatic) potential at core
  the test charge radii are     0.9406  1.0178  1.2059
  (the norm of the test charge is              1.0000)
       1 -97.7771       2 -67.9260       3 -75.0938       4 -75.0460

 E-fermi :  -1.4290     XC(G=0):  -4.3560     alpha+bet : -3.9742

 k-point     1 :       0.0000    0.0000    0.0000
  band No.  band energies     occupation
      1     -17.6284      2.00000
      2     -17.4902      2.00000
      3      -8.1235      2.00000
      4      -6.8785      2.00000
      5      -6.8776      2.00000
      6      -6.8758      2.00000
      7      -5.8642      2.00000
      8      -5.8291      2.00000
      9      -4.4432      2.00000
     10      -4.4280      2.00000
     11      -3.8093      2.00000
     12      -2.8397      2.00000
     13      -2.8184      2.00000
     14      -2.7337      2.00000
     15      -2.1399      2.00000
     16      -2.1329      2.00000
     17      -2.0628      2.00000
     18      -0.2536      0.00000
     19      -0.2263      0.00000
     20       2.1706      0.00000
     21       3.2210      0.00000
     22       3.8241      0.00000

[...]

 soft charge-density along one line, spin component           1
         0         1         2         3         4         5         6         7         8         9
 total charge-density along one line

------------------------ aborting loop because EDIFF is reached ----------------------------------------

         DFTD3 V3.0 Rev 1
 IVDW         = 11
 DF pbe
 parameters
 VDW_S6       =    1.0000
 VDW_S8       =    0.7220
 VDW_SR       =    1.2170
 rs18     =    1.0000
 alpha6   =   14.0000
 alpha8   =   16.0000
 k1-k3    =   16.0000    1.3333   -4.0000
 VDW_RADIUS   =   50.2022 A
 VDW_CNRADIUS =   21.1671 A
 Edisp (eV)   -1.24025

 E6    (eV) :    -0.3589
 E8    (eV) :    -0.8813
 % E8        : 71.06

  FORCE on cell =-STRESS in cart. coord.  units (eV):
  Direction    XX          YY          ZZ          XY          YZ          ZX
  Alpha Z    42.57656    42.57656    42.57656
  Ewald    7510.82469  7508.36950 -9028.53786     0.68837     3.09489     1.85667
  Hartree  7988.39976  7987.35735 -7805.18015     0.28951     1.10161     0.65897
  E(xc)    -141.09802  -141.08489  -141.54263    -0.00375     0.00223     0.00130
  Local  -16126.99786-16123.30864 16199.73736    -1.03122    -4.03283    -2.41707
  n-local   142.41791   142.14727   143.71136     0.07726     0.12192     0.07393
  augment    78.80577    78.78801    79.65551     0.00493    -0.02839    -0.01714
  Kinetic   506.28245   506.01592   509.82471     0.07507    -0.11985    -0.07173
  Fock        0.00000     0.00000     0.00000     0.00000     0.00000     0.00000
  vdW        -0.75970    -0.77454    -0.23754     0.00423    -0.00269    -0.00160
  Total       0.45155     0.08653     0.00732     0.10439     0.13690     0.08333
  in kB       3.17346     0.60814     0.05146     0.73367     0.96210     0.58560

 VOLUME and BASIS-vectors are now :
  energy-cutoff  :      300.00
  volume of cell :      227.98
      direct lattice vectors                 reciprocal lattice vectors
     3.618760253 -0.036443352  0.000000000     0.277916446  0.156763573  0.000000000
    -1.786911496  3.167904907  0.000000000     0.003197131  0.317469438  0.000000000
     0.000000000  0.000000000 20.000000000     0.000000000  0.000000000  0.050000000

[...]

 FORCES acting on ions
    electron-ion (+dipol)            ewald-force                    non-local-force                 convergence-correction
   0.419E+00 0.698E+00 0.997E+03   -.440E+00 -.733E+00 -.100E+04   0.684E-02 0.115E-01 0.558E+01   0.274E-03 0.396E-03 -.101E+00
   -.344E+00 -.574E+00 -.101E+04   0.358E+00 0.597E+00 0.101E+04   0.329E-02 0.531E-02 -.270E+01   -.105E-03 -.172E-03 0.113E+00
   -.134E+00 -.223E+00 -.571E+03   0.128E+00 0.212E+00 0.564E+03   0.159E-01 0.270E-01 0.658E+01   0.467E-04 0.101E-04 0.162E+00
   0.472E-01 0.795E-01 0.576E+03   -.458E-01 -.765E-01 -.570E+03   -.148E-01 -.253E-01 -.647E+01   -.157E-03 -.159E-03 -.828E-01
   -.113E-01 -.186E-01 -.309E+01   0.688E-14 0.136E-13 0.114E-12   0.113E-01 0.186E-01 0.300E+01   0.583E-04 0.749E-04 0.905E-01

 POSITION                                       TOTAL-FORCE (eV/Angst)
     -0.89327      1.58383      3.36693        -0.013314     -0.021753     -0.038604
     -0.89327      1.58382      7.71448         0.016834      0.027628      0.043134
      0.90862      0.51571      6.20974         0.009774      0.016318      0.009009
      0.92360      2.61550      4.71353        -0.013294     -0.022192     -0.013539
    total drift:                                0.000012      0.000034     -0.004332

  FREE ENERGIE OF THE ION-ELECTRON SYSTEM (eV)
  free  energy   TOTEN  =       -17.79689595 eV

  energy  without entropy=      -17.79689595  energy(sigma->0) =      -17.79689595

 Quasi-Newton relaxation of ions (Broydens 2nd method)
  g(Force)  = 0.306E-03   g(Stress)= 0.903E-04

 Reset! Starting new Quasi-Newton update for ions

[...]

 eigenvalue-minimisations  :   704
 total energy-change (2. order) :-0.1590082E-02  (-0.4942231E-02)
 number of electron      33.9999999 magnetization
 augmentation part        3.8528505 magnetization

[...]

 Broyden mixing:
  rms(total) = 0.63258E-02    rms(broyden)= 0.63252E-02
  rms(prec ) = 0.66250E-02
  weight for this iteration     100.00

 eigenvalues of (default mixing * dielectric matrix)
  average eigenvalue GAMMA=   0.9861
  0.9861

[...]

--------------------------------------- Iteration      2(   3)  ---------------------------------------

 eigenvalue-minimisations  :   580
 total energy-change (2. order) : 0.3899648E-04  (-0.7232792E-05)
 number of electron      33.9999999 magnetization
 augmentation part        3.8472791 magnetization

 DIPCOR: dipole corrections for dipol
 direction  3 min pos   199,
 dipolmoment           0.000000      0.000000     -0.037322 electrons x Angstroem
 Tr[quadrupol]       -79.268787

 energy correction for charged system         0.000000 eV
 dipol+quadrupol energy correction           -0.000552 eV
 added-field ion interaction         -1.012028 eV  (added to PSCEN)

 Free energy of the ion-electron system (eV)
  alpha Z        PSCENC =        41.51958936
  Ewald energy   TEWEN  =      5978.24959448
  -Hartree energ DENC   =     -8157.08967117
  -exchange      EXHF   =         0.00000000
  -V(xc)+E(xc)   XCENC  =        36.88910942
  PAW double counting   =      2751.02661183    -2694.36927601
  entropy T*S    EENTRO =        -0.00000000
  eigenvalues    EBANDS =      -209.08854841
  atomic energy  EATOM  =      2236.30457717
  Solvation  Ediel_sol  =         0.00000000
  free energy    TOTEN  =       -16.55801334 eV

  energy without entropy =      -16.55801334  energy(sigma->0) =      -16.55801334

 average (electrostatic) potential at core
  the test charge radii are     0.9406  1.0178  1.2059
  (the norm of the test charge is              1.0000)
       1 -97.7707       2 -67.9223       3 -75.0887       4 -75.0409

 E-fermi :  -1.4235     XC(G=0):  -4.3468     alpha+bet : -3.9691

[...]

 k-point    16 :      -0.2500   -0.2500    0.0000
  band No.  band energies     occupation
      1     -17.1363      2.00000
      2     -16.9773      2.00000
      3      -7.5221      2.00000
      4      -7.0679      2.00000
      5      -6.9969      2.00000
      6      -6.3010      2.00000
      7      -6.1929      2.00000
      8      -5.8656      2.00000
      9      -5.3650      2.00000
     10      -5.1300      2.00000
     11      -3.7980      2.00000
     12      -3.4028      2.00000
     13      -3.1715      2.00000
     14      -2.9586      2.00000
     15      -2.9019      2.00000
     16      -2.3071      2.00000
     17      -1.9929      2.00000
     18      -0.2342      0.00000
     19       1.3397      0.00000
     20       3.1097      0.00000
     21       4.6213      0.00000
     22       5.5744      0.00000

 soft charge-density along one line, spin component           1
         0         1         2         3         4         5         6         7         8         9
 total charge-density along one line

------------------------ aborting loop because EDIFF is reached ----------------------------------------

         DFTD3 V3.0 Rev 1
 Edisp (eV)   -1.23924

 E6    (eV) :    -0.3585
 E8    (eV) :    -0.8808
 % E8        : 71.07

  FORCE on cell =-STRESS in cart. coord.  units (eV):
  Direction    XX          YY          ZZ          XY          YZ          ZX
  Alpha Z    42.53217    42.53217    42.53217
  Ewald    7497.31578  7495.09505 -9014.16138     0.47560     3.39827     1.66306
  Hartree  7975.24020  7974.21345 -7791.61520     0.21453     1.22787     0.59394
  E(xc)    -141.07511  -141.05252  -141.51365    -0.00383     0.00297     0.00199
  Local  -16100.26600-16096.63633 16171.92078    -0.75846    -4.45626    -2.16352
  n-local   142.28678   141.94998   143.57203     0.06599     0.11795     0.05505
  augment    78.84942    78.81934    79.68321     0.01063    -0.03097    -0.01329
  Kinetic   506.30239   505.98011   509.75993     0.08401    -0.15859    -0.07379
  Fock        0.00000     0.00000     0.00000     0.00000     0.00000     0.00000
  vdW        -0.76022    -0.77906    -0.24171     0.00448    -0.00357    -0.00179
  Total       0.42541     0.12219    -0.06383     0.09295     0.09767     0.06164
  in kB       2.98661     0.85786    -0.44812     0.65256     0.68566     0.43274

 VOLUME and BASIS-vectors are now :
  energy-cutoff  :      300.00
  volume of cell :      228.21
      direct lattice vectors                 reciprocal lattice vectors
     3.618760253 -0.036481385  0.000000000     0.277916446  0.156600140  0.000000000
    -1.786911496  3.171211042  0.000000000     0.003197131  0.317138461  0.000000000
     0.000000000  0.000000000 20.000000000     0.000000000  0.000000000  0.050000000

  length of vectors
     3.618944136  3.640004419 20.000000000     0.319000243  0.317154576  0.050000000

 FORCES acting on ions
    electron-ion (+dipol)            ewald-force                    non-local-force                 convergence-correction
   0.406E+00 0.837E+00 0.996E+03   -.437E+00 -.878E+00 -.100E+04   0.135E-01 0.212E-01 0.563E+01   0.558E-02 -.178E-02 0.719E-02
   -.318E+00 -.657E+00 -.100E+04   0.334E+00 0.679E+00 0.101E+04   0.105E-02 0.333E-02 -.272E+01   -.229E-02 0.432E-02 0.420E-01
   -.658E-01 -.152E+00 -.570E+03   0.462E-01 0.117E+00 0.563E+03   0.693E-02 0.178E-01 0.656E+01   0.865E-02 0.146E-01 0.100E+00
   -.411E-01 -.551E-01 0.575E+03   0.568E-01 0.815E-01 -.569E+03   -.266E-02 -.104E-01 -.645E+01   -.114E-01 -.181E-01 0.280E-01
   -.182E-01 -.280E-01 -.320E+01   0.114E-13 0.125E-13 0.227E-12   0.188E-01 0.320E-01 0.303E+01   0.558E-03 -.996E-03 0.177E+00

 POSITION                                       TOTAL-FORCE (eV/Angst)
     -0.89391      1.58443      3.36506        -0.011934     -0.021693     -0.019638
     -0.89246      1.58681      7.71656         0.014936      0.028120      0.021040
      0.90909      0.51704      6.21017        -0.004392     -0.003703     -0.005878
      0.92296      2.61716      4.71288         0.001390     -0.002724      0.004476
    total drift:                                0.001200      0.002941      0.005016

  FREE ENERGIE OF THE ION-ELECTRON SYSTEM (eV)
  free  energy   TOTEN  =       -17.79724866 eV

  energy  without entropy=      -17.79724866  energy(sigma->0) =      -17.79724866

 d Force = 0.2290727E-03[ 0.152E-03, 0.306E-03]  d Energy = 0.3527164E-03-0.124E-03
 d Force = 0.4581956E+01[ 0.458E+01, 0.459E+01]  d Ewald  = 0.1240694E+02-0.782E+01

 Quasi-Newton relaxation of ions (Broydens 2nd method)
  g(Force)  = 0.123E-03   g(Stress)= 0.180E-03

 retain information from N=  1 steps
 eigenvalues of (default step * inverse Hessian matrix)
  average eigenvalue of G=   1.7870
 eigenvalue spectrum of G is  1.7870

 reached required accuracy - stopping structural energy minimisation
 writing wavefunctions