 vasp.5.4.4.16052018 (build Dec 07 2020 11:33:42) complex

 executed on             LinuxIFC date 2020.12.16  02:31:29

 INCAR:
 POTCAR:    PAW_PBE Cl 06Sep2000
 POTCAR:    PAW_PBE Br 06Sep2000
 POTCAR:    PAW_PBE Pt 04Feb2005

 POTCAR:    PAW_PBE Cl 06Sep2000
   VRHFIN =Cl: s2p5

   TITEL  = PAW_PBE Cl 06Sep2000
   POMASS =   35.453; ZVAL   =    7.000    mass and valenz
   ENMAX  =  262.472; ENMIN  =  196.854 eV

 POTCAR:    PAW_PBE Br 06Sep2000
   VRHFIN =Br: s2p5

   TITEL  = PAW_PBE Br 06Sep2000
   POMASS =   79.904; ZVAL   =    7.000    mass and valenz
   ENMAX  =  216.285; ENMIN  =  162.214 eV

 POTCAR:    PAW_PBE Pt 04Feb2005
   VRHFIN =Pt: s1d9

   TITEL  = PAW_PBE Pt 04Feb2005
   POMASS =  195.080; ZVAL   =   10.000    mass and valenz
   ENMAX  =  230.283; ENMIN  =  172.712 eV

  PAW_PBE Cl 06Sep2000                  :
  PAW_PBE Br 06Sep2000                  :
  PAW_PBE Pt 04Feb2005                  :

 POSCAR: ClBrPt2
  positions in direct lattice
  velocities in cartesian coordinates
 exchange correlation table for  LEXCH =        8
   RHO(1)=    0.500       N(1)  =     2000
   RHO(2)=  100.500       N(2)  =     4000

 ion  position               nearest neighbor table
   1  0.000  0.500  0.168-   4 2.49   4 2.49   4 2.49
   2  0.000  0.500  0.386-   3 2.58   3 2.58   3 2.58
   3  0.333  0.167  0.310-   4 2.58   4 2.58   4 2.58   2 2.58   2 2.58   2 2.58
   4  0.667  0.833  0.236-   1 2.49   1 2.49   1 2.49   3 2.58   3 2.58   3 2.58

IMPORTANT INFORMATION: All symmetrisations will be switched off!
NOSYMM: (Re-)initialisation of all symmetry stuff for point group C_1.

 KPOINTS: Automatic mesh

Automatic generation of k-mesh.
Space group operators:
 irot       det(A)        alpha          n_x          n_y          n_z        tau_x        tau_y        tau_z
    1     1.000000     0.000000     1.000000     0.000000     0.000000     0.000000     0.000000     0.000000

 Subroutine IBZKPT returns following result:

 Found     64 irreducible k-points:

 Following reciprocal coordinates:
            Coordinates               Weight
  0.000000  0.000000  0.000000      1.000000
  0.125000 -0.000000  0.000000      1.000000
  0.250000 -0.000000  0.000000      1.000000
  0.375000 -0.000000  0.000000      1.000000
  0.500000 -0.000000  0.000000      1.000000
 -0.375000  0.000000  0.000000      1.000000
 -0.250000  0.000000  0.000000      1.000000
 -0.125000  0.000000  0.000000      1.000000
  0.000000  0.125000  0.000000      1.000000
  0.125000  0.125000  0.000000      1.000000
  0.250000  0.125000  0.000000      1.000000
  0.375000  0.125000  0.000000      1.000000
  0.500000  0.125000  0.000000      1.000000
 -0.375000  0.125000  0.000000      1.000000
 -0.250000  0.125000  0.000000      1.000000
 -0.125000  0.125000  0.000000      1.000000
  0.000000  0.250000  0.000000      1.000000
  0.125000  0.250000  0.000000      1.000000
  0.250000  0.250000  0.000000      1.000000
  0.375000  0.250000  0.000000      1.000000
  0.500000  0.250000  0.000000      1.000000
 -0.375000  0.250000  0.000000      1.000000
 -0.250000  0.250000  0.000000      1.000000
 -0.125000  0.250000  0.000000      1.000000
  0.000000  0.375000  0.000000      1.000000
  0.125000  0.375000  0.000000      1.000000
  0.250000  0.375000  0.000000      1.000000
  0.375000  0.375000  0.000000      1.000000
  0.500000  0.375000  0.000000      1.000000
 -0.375000  0.375000  0.000000      1.000000
 -0.250000  0.375000  0.000000      1.000000
 -0.125000  0.375000  0.000000      1.000000
  0.000000  0.500000  0.000000      1.000000
  0.125000  0.500000  0.000000      1.000000
  0.250000  0.500000  0.000000      1.000000
  0.375000  0.500000  0.000000      1.000000
  0.500000  0.500000  0.000000      1.000000
 -0.375000  0.500000  0.000000      1.000000
 -0.250000  0.500000  0.000000      1.000000
 -0.125000  0.500000  0.000000      1.000000
 -0.000000 -0.375000  0.000000      1.000000
  0.125000 -0.375000  0.000000      1.000000
  0.250000 -0.375000  0.000000      1.000000
  0.375000 -0.375000  0.000000      1.000000
  0.500000 -0.375000  0.000000      1.000000
 -0.375000 -0.375000  0.000000      1.000000
 -0.250000 -0.375000  0.000000      1.000000
 -0.125000 -0.375000  0.000000      1.000000
 -0.000000 -0.250000  0.000000      1.000000
  0.125000 -0.250000  0.000000      1.000000
  0.250000 -0.250000  0.000000      1.000000
  0.375000 -0.250000  0.000000      1.000000
  0.500000 -0.250000  0.000000      1.000000
 -0.375000 -0.250000  0.000000      1.000000
 -0.250000 -0.250000  0.000000      1.000000
 -0.125000 -0.250000  0.000000      1.000000
 -0.000000 -0.125000  0.000000      1.000000
  0.125000 -0.125000  0.000000      1.000000
  0.250000 -0.125000  0.000000      1.000000
  0.375000 -0.125000  0.000000      1.000000
  0.500000 -0.125000  0.000000      1.000000
 -0.375000 -0.125000  0.000000      1.000000
 -0.250000 -0.125000  0.000000      1.000000
 -0.125000 -0.125000  0.000000      1.000000

 Following cartesian coordinates:
            Coordinates               Weight
  0.000000  0.000000  0.000000      1.000000
  0.034601  0.019518  0.000000      1.000000
  0.069203  0.039035  0.000000      1.000000
  0.103804  0.058553  0.000000      1.000000
  0.138406  0.078070  0.000000      1.000000
 -0.103804 -0.058553  0.000000      1.000000
 -0.069203 -0.039035  0.000000      1.000000
 -0.034601 -0.019518  0.000000      1.000000
  0.000398  0.039724  0.000000      1.000000
  0.034999  0.059242  0.000000      1.000000
  0.069601  0.078759  0.000000      1.000000
  0.104202  0.098277  0.000000      1.000000
  0.138804  0.117794  0.000000      1.000000
 -0.103406 -0.018828  0.000000      1.000000
 -0.068805  0.000689  0.000000      1.000000
 -0.034203  0.020207  0.000000      1.000000
  0.000796  0.079449  0.000000      1.000000
  0.035398  0.098966  0.000000      1.000000
  0.069999  0.118484  0.000000      1.000000
  0.104600  0.138001  0.000000      1.000000
  0.139202  0.157519  0.000000      1.000000
 -0.103008  0.020896  0.000000      1.000000
 -0.068407  0.040414  0.000000      1.000000
 -0.033805  0.059931  0.000000      1.000000
  0.001194  0.119173  0.000000      1.000000
  0.035796  0.138691  0.000000      1.000000
  0.070397  0.158208  0.000000      1.000000
  0.104998  0.177726  0.000000      1.000000
  0.139600  0.197243  0.000000      1.000000
 -0.102610  0.060621  0.000000      1.000000
 -0.068009  0.080138  0.000000      1.000000
 -0.033407  0.099656  0.000000      1.000000
  0.001592  0.158898  0.000000      1.000000
  0.036194  0.178415  0.000000      1.000000
  0.070795  0.197933  0.000000      1.000000
  0.105396  0.217450  0.000000      1.000000
  0.139998  0.236968  0.000000      1.000000
 -0.102212  0.100345  0.000000      1.000000
 -0.067611  0.119863  0.000000      1.000000
 -0.033009  0.139380  0.000000      1.000000
 -0.001194 -0.119173  0.000000      1.000000
  0.033407 -0.099656  0.000000      1.000000
  0.068009 -0.080138  0.000000      1.000000
  0.102610 -0.060621  0.000000      1.000000
  0.137211 -0.041103  0.000000      1.000000
 -0.104998 -0.177726  0.000000      1.000000
 -0.070397 -0.158208  0.000000      1.000000
 -0.035796 -0.138691  0.000000      1.000000
 -0.000796 -0.079449  0.000000      1.000000
  0.033805 -0.059931  0.000000      1.000000
  0.068407 -0.040414  0.000000      1.000000
  0.103008 -0.020896  0.000000      1.000000
  0.137609 -0.001379  0.000000      1.000000
 -0.104600 -0.138001  0.000000      1.000000
 -0.069999 -0.118484  0.000000      1.000000
 -0.035398 -0.098966  0.000000      1.000000
 -0.000398 -0.039724  0.000000      1.000000
  0.034203 -0.020207  0.000000      1.000000
  0.068805 -0.000689  0.000000      1.000000
  0.103406  0.018828  0.000000      1.000000
  0.138008  0.038346  0.000000      1.000000
 -0.104202 -0.098277  0.000000      1.000000
 -0.069601 -0.078759  0.000000      1.000000
 -0.034999 -0.059242  0.000000      1.000000

 SYSTEM =  unknown system
 POSCAR =  ClBrPt2

 Startparameter for this run:
   NWRITE =      2    write-flag & timer
   PREC   = accura    normal or accurate (medium, high low for compatibility)
   ISTART =      0    job   : 0-new  1-cont  2-samecut
   ICHARG =      2    charge: 1-file 2-atom 10-const
   ISPIN  =      1    spin polarized calculation?
   LNONCOLLINEAR =      F non collinear calculations
   LSORBIT =      F    spin-orbit coupling
   INIWAV =      1    electr: 0-lowe 1-rand  2-diag
   LASPH  =      F    aspherical Exc in radial PAW
   METAGGA=      F    non-selfconsistent MetaGGA calc.

 Electronic Relaxation 1
   ENCUT  =  400.0 eV  29.40 Ry    5.42 a.u.   5.92  5.92 32.61*2*pi/ulx,y,z
   ENINI  =  400.0     initial cutoff
   ENAUG  =  503.9 eV  augmentation charge cutoff
   NELM   =     60;   NELMIN=  2; NELMDL= -5     # of ELM steps
   EDIFF  = 0.5E-07   stopping-criterion for ELM
   LREAL  =      F    real-space projection
   NLSPLINE    = F    spline interpolate recip. space projectors
   LCOMPAT=      F    compatible to vasp.4.4
   GGA_COMPAT  = T    GGA compatible to vasp.4.4-vasp.4.6
   LMAXPAW     = -100 max onsite density
   LMAXMIX     =    2 max onsite mixed and CHGCAR
   VOSKOWN=      0    Vosko Wilk Nusair interpolation
   ROPT   =    0.00000   0.00000   0.00000
 Ionic relaxation
   EDIFFG = 0.5E-06   stopping-criterion for IOM
   NSW    =    100    number of steps for IOM
   NBLOCK =      1;   KBLOCK =    100    inner block; outer block
   IBRION =      1    ionic relax: 0-MD 1-quasi-New 2-CG
   NFREE  =      0    steps in history (QN), initial steepest desc. (CG)
   ISIF   =      3    stress and relaxation
   IWAVPR =     11    prediction:  0-non 1-charg 2-wave 3-comb
   ISYM   =     -1    0-nonsym 1-usesym 2-fastsym
   LCORR  =      T    Harris-Foulkes like correction to forces

   POTIM  = 0.5000    time-step for ionic-motion
   TEIN   =    0.0    initial temperature
   TEBEG  =    0.0;   TEEND  =   0.0 temperature during run
   SMASS  =  -3.00    Nose mass-parameter (am)
   estimated Nose-frequenzy (Omega)   =  0.10E-29 period in steps =****** mass=  -0.302E-27a.u.
   SCALEE = 1.0000    scale energy and forces
   NPACO  =    256;   APACO  = 16.0  distance and # of slots for P.C.
   PSTRESS=    0.0 pullay stress

  Mass of Ions in am
   POMASS =  35.45 79.90195.08
  Ionic Valenz
   ZVAL   =   7.00  7.00 10.00
  Atomic Wigner-Seitz radii
  virtual crystal weights
   VCA    =   1.00  1.00  1.00
   NELECT =      34.0000    total number of electrons
   NUPDOWN=      -1.0000    fix difference up-down

 DOS related values:
   EMIN   =  10.00;   EMAX   =-10.00  energy-range for DOS
   EFERMI =   0.00
   ISMEAR =     0;   SIGMA  =   0.10  broadening in eV -4-tet -1-fermi 0-gaus

 Electronic relaxation 2 (details)
   IALGO  =     38    algorithm
   LDIAG  =      T    sub-space diagonalisation (order eigenvalues)
   LSUBROT=      F    optimize rotation matrix (better conditioning)
   TURBO    =      0    0=normal 1=particle mesh
   IRESTART =      0    0=no restart 2=restart with 2 vectors
   NREBOOT  =      0    no. of reboots
   NMIN     =      0    reboot dimension
   EREF     =   0.00    reference energy to select bands
   IMIX   =      4    mixing-type and parameters
[...]
 k-point 48 :  -0.1250-0.3750 0.0000  plane waves:    4167
 k-point 49 :  -0.0000-0.2500 0.0000  plane waves:    4144
 k-point 50 :   0.1250-0.2500 0.0000  plane waves:    4144
 k-point 51 :   0.2500-0.2500 0.0000  plane waves:    4144
 k-point 52 :   0.3750-0.2500 0.0000  plane waves:    4157
 k-point 53 :   0.5000-0.2500 0.0000  plane waves:    4170
 k-point 54 :  -0.3750-0.2500 0.0000  plane waves:    4188
 k-point 55 :  -0.2500-0.2500 0.0000  plane waves:    4170
 k-point 56 :  -0.1250-0.2500 0.0000  plane waves:    4157
 k-point 57 :  -0.0000-0.1250 0.0000  plane waves:    4119
 k-point 58 :   0.1250-0.1250 0.0000  plane waves:    4119
 k-point 59 :   0.2500-0.1250 0.0000  plane waves:    4144
 k-point 60 :   0.3750-0.1250 0.0000  plane waves:    4157
 k-point 61 :   0.5000-0.1250 0.0000  plane waves:    4167
 k-point 62 :  -0.3750-0.1250 0.0000  plane waves:    4167
 k-point 63 :  -0.2500-0.1250 0.0000  plane waves:    4157
 k-point 64 :  -0.1250-0.1250 0.0000  plane waves:    4144

 maximum and minimum number of plane-waves per node :      4192     4115

 maximum number of plane-waves:      4192
 maximum index in each direction:
   IXMAX=    6   IYMAX=    6   IZMAX=   32
   IXMIN=   -6   IYMIN=   -6   IZMIN=  -32

 serial   3D FFT for wavefunctions
 parallel 3D FFT for charge:
    minimum data exchange during FFTs selected (reduces bandwidth)

 Broyden mixing: mesh for mixing (old mesh)
   NGX = 11   NGY = 11   NGZ = 65
  (NGX  = 48   NGY  = 48   NGZ  =280)
  gives a total of   7865 points

 initial charge density was supplied:
 charge density of overlapping atoms calculated
 number of electron      34.0000000 magnetization
 keeping initial charge density in first step

 Maximum index for augmentation-charges        10385 (set IRDMAX)

 First call to EWALD:  gamma=   0.290
 Maximum number of real-space cells 5x 5x 1
 Maximum number of reciprocal cells 2x 2x 8

--------------------------------------- Iteration      1(   1)  ---------------------------------------

 eigenvalue-minimisations  :  2816
 total energy-change (2. order) : 0.2469024E+03  (-0.1174972E+04)
 number of electron      34.0000000 magnetization
 augmentation part       34.0000000 magnetization

 DIPCOR: dipole corrections for dipol
 direction  3 min pos   213,
 dipolmoment           0.000000      0.000000     -0.000023 electrons x Angstroem
 Tr[quadrupol]       -79.157174

 energy correction for charged system         0.000000 eV
 dipol+quadrupol energy correction           -0.000000 eV
 added-field ion interaction          0.000219 eV  (added to PSCEN)

 Free energy of the ion-electron system (eV)
  alpha Z        PSCENC =        42.45224435
  Ewald energy   TEWEN  =      5970.20326166
  -Hartree energ DENC   =     -8159.71826346
  -exchange      EXHF   =         0.00000000
  -V(xc)+E(xc)   XCENC  =        37.18481060
  PAW double counting   =      2012.60260865    -1949.97488812
  entropy T*S    EENTRO =        -0.01199973
  eigenvalues    EBANDS =        57.77814951
  atomic energy  EATOM  =      2236.38650011
  Solvation  Ediel_sol  =         0.00000000
  free energy    TOTEN  =       246.90242357 eV

  energy without entropy =      246.91442330  energy(sigma->0) =      246.90842343

[...]

 eigenvalue-minimisations  :  4192
 total energy-change (2. order) :-0.2417171E+03  (-0.2301822E+03)
 number of electron      34.0000000 magnetization
 augmentation part       34.0000000 magnetization

[...]

 Broyden mixing:
  rms(total) = 0.15970E+01    rms(broyden)= 0.15969E+01
  rms(prec ) = 0.16210E+01
  weight for this iteration     100.00

[...]

 eigenvalues of (default mixing * dielectric matrix)
  average eigenvalue GAMMA=   1.8622
  1.8622

[...]

 average (electrostatic) potential at core
  the test charge radii are     0.9406  1.0178  1.2059
  (the norm of the test charge is              1.0000)
       1 -97.7457       2 -67.8926       3 -75.1067       4 -75.0610

 E-fermi :  -1.5000     XC(G=0):  -4.2823     alpha+bet : -3.9611

 k-point     1 :       0.0000    0.0000    0.0000
  band No.  band energies     occupation
      1     -17.5960      2.00000
      2     -17.4587      2.00000
      3      -8.0949      2.00000
      4      -6.8613      2.00000
      5      -6.8613      2.00000
      6      -6.8491      2.00000
      7      -5.8333      2.00000
      8      -5.8333      2.00000
      9      -4.4315      2.00000
     10      -4.4315      2.00000
     11      -3.7985      2.00000
     12      -2.8264      2.00000
     13      -2.8264      2.00000
     14      -2.7222      2.00000
     15      -2.1409      2.00000
     16      -2.1409      2.00000
     17      -2.0600      2.00000
     18      -0.2523      0.00000
     19      -0.2523      0.00000
     20       2.1786      0.00000
     21       3.3179      0.00000
     22       3.9314      0.00000

[...]

 soft charge-density along one line, spin component           1
         0         1         2         3         4         5         6         7         8         9
 total charge-density along one line

------------------------ aborting loop because EDIFF is reached ----------------------------------------

         DFTD3 V3.0 Rev 1
 IVDW         = 11
 DF pbe
 parameters
 VDW_S6       =    1.0000
 VDW_S8       =    0.7220
 VDW_SR       =    1.2170
 rs18     =    1.0000
 alpha6   =   14.0000
 alpha8   =   16.0000
 k1-k3    =   16.0000    1.3333   -4.0000
 VDW_RADIUS   =   50.2022 A
 VDW_CNRADIUS =   21.1671 A
 Edisp (eV)   -1.23810

 E6    (eV) :    -0.3578
 E8    (eV) :    -0.8803
 % E8        : 71.10

  FORCE on cell =-STRESS in cart. coord.  units (eV):
  Direction    XX          YY          ZZ          XY          YZ          ZX
  Alpha Z    42.45203    42.45203    42.45203
  Ewald    7487.85729  7487.85553 -9005.51001    -0.00037     0.00060    -0.00028
  Hartree  7965.93823  7965.93762 -7782.77489    -0.00013     0.00020    -0.00009
  E(xc)    -141.07722  -141.07722  -141.53478    -0.00000    -0.00000     0.00000
  Local  -16081.21439-16081.21211 16153.76346     0.00051    -0.00080     0.00037
  n-local   142.49901   142.49894   144.14926    -0.00002     0.00006    -0.00003
  augment    78.91567    78.91567    79.69235    -0.00002    -0.00001     0.00000
  Kinetic   505.83275   505.83287   509.85461     0.00002     0.00001    -0.00000
  Fock        0.00000     0.00000     0.00000     0.00000     0.00000     0.00000
  vdW        -0.77326    -0.77325    -0.23592     0.00000     0.00000    -0.00000
  Total       0.43011     0.43006    -0.14388    -0.00001     0.00007    -0.00003
  in kB       3.01388     3.01357    -1.00822    -0.00007     0.00046    -0.00022

 VOLUME and BASIS-vectors are now :
  energy-cutoff  :      400.00
  volume of cell :      228.64
      direct lattice vectors                 reciprocal lattice vectors
     3.633105297 -0.036405147  0.000000000     0.276811218  0.156140057  0.000000000
    -1.785025189  3.164562680  0.000000000     0.003184438  0.317795665  0.000000000
     0.000000000  0.000000000 20.000000000     0.000000000  0.000000000  0.050000000

[...]

 FORCES acting on ions
    electron-ion (+dipol)            ewald-force                    non-local-force                 convergence-correction
   0.318E-05 0.141E-03 0.994E+03   -.574E-05 -.148E-03 -.999E+03   0.873E-05 -.632E-05 0.514E+01   0.454E-07 0.871E-07 -.239E-03
   0.573E-04 -.748E-04 -.100E+04   -.606E-04 0.793E-04 0.101E+04   0.863E-06 0.443E-05 -.262E+01   -.431E-08 -.155E-08 -.231E-03
   0.642E-04 -.103E-03 -.569E+03   -.726E-04 0.111E-03 0.562E+03   -.646E-05 0.758E-05 0.656E+01   0.114E-07 -.131E-07 -.628E-03
   -.137E-03 0.289E-04 0.574E+03   0.139E-03 -.415E-04 -.568E+03   0.120E-04 0.165E-06 -.645E+01   -.471E-07 0.222E-08 -.618E-03
   -.125E-04 -.755E-05 -.263E+01   0.666E-14 -.348E-15 0.000E+00   0.151E-04 0.586E-05 0.263E+01   0.536E-08 0.746E-07 -.172E-02

 POSITION                                       TOTAL-FORCE (eV/Angst)
     -0.89233      1.58216      3.36703         0.000006     -0.000013      0.050870
     -0.89232      1.58215      7.71424        -0.000003      0.000009     -0.002507
      0.91372      0.51517      6.20877        -0.000015      0.000016     -0.003571
      0.93474      2.61274      4.71463         0.000013     -0.000012     -0.044792
    total drift:                                0.000003     -0.000002      0.000218

  FREE ENERGIE OF THE ION-ELECTRON SYSTEM (eV)
  free  energy   TOTEN  =       -17.78292483 eV

  energy  without entropy=      -17.78292483  energy(sigma->0) =      -17.78292483

 Quasi-Newton relaxation of ions (Broydens 2nd method)
  g(Force)  = 0.223E-03   g(Stress)= 0.446E-02

 Reset! Starting new Quasi-Newton update for ions

[...]

         DFTD3 V3.0 Rev 1
 Edisp (eV)   -1.22999

[...]

 d Force = 0.1699622E-03[ 0.117E-03, 0.223E-03]  d Energy = 0.8109721E-03-0.641E-03
 d Force =-0.1434790E+01[-0.143E+01,-0.144E+01]  d Ewald  = 0.7562809E+02-0.771E+02

[...]

 retain information from N=  1 steps
 eigenvalues of (default step * inverse Hessian matrix)
  average eigenvalue of G=   0.5885
 eigenvalue spectrum of G is  0.5885

[...]

 d Force = 0.6250133E-03[ 0.335E-03, 0.915E-03]  d Energy = 0.1121053E-02-0.496E-03
 d Force =-0.7995867E+01[-0.801E+01,-0.798E+01]  d Ewald  =-0.3855764E+02 0.306E+02

[...]

 d Force =-0.2278007E-04[-0.318E-04,-0.137E-04]  d Energy =-0.1744081E-04-0.534E-05
 d Force = 0.3805905E+01[ 0.381E+01, 0.380E+01]  d Ewald  =-0.3588948E+01 0.739E+01

[...]

 d Force = 0.1148327E-04[ 0.244E-05, 0.205E-04]  d Energy = 0.1394593E-04-0.246E-05
 d Force =-0.4001948E+01[-0.400E+01,-0.400E+01]  d Ewald  = 0.8856636E+00-0.489E+01

[...]

 eigenvalue-minimisations  :  2214
 total energy-change (2. order) :-0.1258195E-07  (-0.8843800E-08)
 number of electron      34.0000003 magnetization
 augmentation part        3.8454522 magnetization

[...]

 d Force = 0.1998031E-06[ 0.131E-06, 0.269E-06]  d Energy = 0.5916086E-06-0.392E-06
 d Force =-0.2573162E+00[-0.257E+00,-0.257E+00]  d Ewald  =-0.1611713E-01-0.241E+00

[...]

 Broyden mixing:
  rms(total) = 0.16659E-03    rms(broyden)= 0.16656E-03
  rms(prec ) = 0.19638E-03
  weight for this iteration     100.00

 eigenvalues of (default mixing * dielectric matrix)
  average eigenvalue GAMMA=   0.8502
  0.8502

[...]

--------------------------------------- Iteration     12(   3)  ---------------------------------------

 eigenvalue-minimisations  :  3002
 total energy-change (2. order) : 0.2280694E-07  (-0.2848474E-07)
 number of electron      34.0000003 magnetization
 augmentation part        3.8454281 magnetization

 DIPCOR: dipole corrections for dipol
 direction  3 min pos   216,
 dipolmoment           0.000000      0.000000     -0.036519 electrons x Angstroem
 Tr[quadrupol]       -80.403116

 energy correction for charged system         0.000000 eV
 dipol+quadrupol energy correction           -0.000521 eV
 added-field ion interaction          0.132798 eV  (added to PSCEN)

 Free energy of the ion-electron system (eV)
  alpha Z        PSCENC =        42.06508256
  Ewald energy   TEWEN  =      5929.68701242
  -Hartree energ DENC   =     -8106.41942803
  -exchange      EXHF   =         0.00000000
  -V(xc)+E(xc)   XCENC  =        36.84220922
  PAW double counting   =      2738.43449986    -2681.74776205
  entropy T*S    EENTRO =        -0.00000000
  eigenvalues    EBANDS =      -211.80389794
  atomic energy  EATOM  =      2236.38650011
  Solvation  Ediel_sol  =         0.00000000
  free energy    TOTEN  =       -16.55578385 eV

  energy without entropy =      -16.55578385  energy(sigma->0) =      -16.55578385

 average (electrostatic) potential at core
  the test charge radii are     0.9406  1.0178  1.2059
  (the norm of the test charge is              1.0000)
       1 -97.8387       2 -67.9779       3 -75.1930       4 -75.1509

 E-fermi :  -1.5682     XC(G=0):  -4.2367     alpha+bet : -3.8799

[...]

 k-point    64 :      -0.1250   -0.1250    0.0000
  band No.  band energies     occupation
      1     -17.4741      2.00000
      2     -17.3596      2.00000
      3      -7.8158      2.00000
      4      -7.0991      2.00000
      5      -6.9420      2.00000
      6      -6.4681      2.00000
      7      -6.3561      2.00000
      8      -5.7866      2.00000
      9      -5.0421      2.00000
     10      -4.9412      2.00000
     11      -4.3628      2.00000
     12      -3.1395      2.00000
     13      -2.8645      2.00000
     14      -2.5852      2.00000
     15      -2.4784      2.00000
     16      -2.3952      2.00000
     17      -2.0489      2.00000
     18      -0.3756      0.00000
     19       0.0742      0.00000
     20       3.5915      0.00000
     21       3.9661      0.00000
     22       4.4594      0.00000

 soft charge-density along one line, spin component           1
         0         1         2         3         4         5         6         7         8         9
 total charge-density along one line

------------------------ aborting loop because EDIFF is reached ----------------------------------------

         DFTD3 V3.0 Rev 1
 Edisp (eV)   -1.23041

 E6    (eV) :    -0.3539
 E8    (eV) :    -0.8765
 % E8        : 71.24

  FORCE on cell =-STRESS in cart. coord.  units (eV):
  Direction    XX          YY          ZZ          XY          YZ          ZX
  Alpha Z    41.93281    41.93281    41.93281
  Ewald    7446.96224  7446.96229 -8964.23797     0.00013     0.00003    -0.00004
  Hartree  7922.72252  7922.72254 -7739.03446     0.00005     0.00001    -0.00001
  E(xc)    -141.01180  -141.01180  -141.52089     0.00000     0.00000    -0.00000
  Local  -15996.09328-15996.09330 16068.47868    -0.00012    -0.00003     0.00005
  n-local   142.21726   142.21726   144.03669    -0.00000     0.00000     0.00000
  augment    78.86634    78.86631    79.82627    -0.00003    -0.00000     0.00000
  Kinetic   505.20501   505.20500   510.64331    -0.00002    -0.00000     0.00001
  Fock        0.00000     0.00000     0.00000     0.00000     0.00000     0.00000
  vdW        -0.80148    -0.80148    -0.19521    -0.00000    -0.00000     0.00000
  Total      -0.00038    -0.00038    -0.07077     0.00000     0.00000     0.00000
  in kB      -0.00261    -0.00261    -0.48981     0.00000     0.00000     0.00003

 VOLUME and BASIS-vectors are now :
  energy-cutoff  :      400.00
  volume of cell :      231.48
      direct lattice vectors                 reciprocal lattice vectors
     3.655528009 -0.036629028  0.000000000     0.275113245  0.155182161  0.000000000
    -1.796041249  3.184094946  0.000000000     0.003164834  0.315846163  0.000000000
     0.000000000  0.000000000 20.000000000     0.000000000  0.000000000  0.050000000

  length of vectors
     3.655711519  3.655711256 20.000000000     0.315861996  0.315862019  0.050000000

 FORCES acting on ions
    electron-ion (+dipol)            ewald-force                    non-local-force                 convergence-correction
   0.822E-04 -.577E-04 0.982E+03   -.907E-04 0.636E-04 -.987E+03   0.808E-05 -.617E-05 0.510E+01   0.264E-07 -.150E-07 -.168E-02
   0.840E-04 -.574E-04 -.991E+03   -.889E-04 0.611E-04 0.994E+03   0.292E-05 -.167E-05 -.262E+01   -.212E-07 -.170E-07 -.252E-02
   -.747E-04 0.529E-04 -.562E+03   0.691E-04 -.481E-04 0.556E+03   0.429E-05 -.381E-05 0.645E+01   0.625E-07 -.832E-07 -.149E-01
   -.121E-03 0.829E-04 0.569E+03   0.110E-03 -.767E-04 -.563E+03   0.954E-05 -.604E-05 -.631E+01   -.501E-07 0.415E-07 -.147E-01
   -.291E-04 0.207E-04 -.258E+01   -.713E-14 0.183E-13 -.114E-12   0.248E-04 -.177E-04 0.261E+01   0.175E-07 -.737E-07 -.338E-01

 POSITION                                       TOTAL-FORCE (eV/Angst)
     -0.89783      1.59192      3.39123         0.000001     -0.000001      0.001287
     -0.89783      1.59192      7.69278        -0.000001      0.000001     -0.000797
      0.91936      0.51835      6.20213        -0.000000      0.000000     -0.000542
      0.94051      2.62887      4.71852         0.000000     -0.000001      0.000052
    total drift:                               -0.000004      0.000003     -0.000547

  FREE ENERGIE OF THE ION-ELECTRON SYSTEM (eV)
  free  energy   TOTEN  =       -17.78619169 eV

  energy  without entropy=      -17.78619169  energy(sigma->0) =      -17.78619169

 d Force =-0.1266976E-06[-0.169E-06,-0.840E-07]  d Energy =-0.2695850E-06 0.143E-06
 d Force = 0.1744811E+00[ 0.174E+00, 0.174E+00]  d Ewald  =-0.6710300E-01 0.242E+00

 Quasi-Newton relaxation of ions (Broydens 2nd method)
  g(Force)  = 0.125E-06   g(Stress)= 0.343E-08

 retain information from N=  1 steps
 eigenvalues of (default step * inverse Hessian matrix)
  average eigenvalue of G=   0.2503
 eigenvalue spectrum of G is  0.2503

 reached required accuracy - stopping structural energy minimisation
 writing wavefunctions