 vasp.5.4.4.16052018 (build Dec 07 2020 11:33:42) complex

 executed on             LinuxIFC date 2020.12.16  02:55:48

 INCAR:
 POTCAR:    PAW_PBE Cl 06Sep2000
 POTCAR:    PAW_PBE Br 06Sep2000
 POTCAR:    PAW_PBE Pt 04Feb2005

 POTCAR:    PAW_PBE Cl 06Sep2000
   VRHFIN =Cl: s2p5

   TITEL  = PAW_PBE Cl 06Sep2000
   POMASS =   35.453; ZVAL   =    7.000    mass and valenz
   ENMAX  =  262.472; ENMIN  =  196.854 eV

 POTCAR:    PAW_PBE Br 06Sep2000
   VRHFIN =Br: s2p5

   TITEL  = PAW_PBE Br 06Sep2000
   POMASS =   79.904; ZVAL   =    7.000    mass and valenz
   ENMAX  =  216.285; ENMIN  =  162.214 eV

 POTCAR:    PAW_PBE Pt 04Feb2005
   VRHFIN =Pt: s1d9

   TITEL  = PAW_PBE Pt 04Feb2005
   POMASS =  195.080; ZVAL   =   10.000    mass and valenz
   ENMAX  =  230.283; ENMIN  =  172.712 eV

  PAW_PBE Cl 06Sep2000                  :
  PAW_PBE Br 06Sep2000                  :
  PAW_PBE Pt 04Feb2005                  :

 POSCAR: ClBrPt2
  positions in direct lattice
  velocities in cartesian coordinates
 exchange correlation table for  LEXCH =        8
   RHO(1)=    0.500       N(1)  =     2000
   RHO(2)=  100.500       N(2)  =     4000

 ion  position               nearest neighbor table
   1  0.000  0.500  0.170-   4 2.49   4 2.49   4 2.49
   2  0.000  0.500  0.385-   3 2.58   3 2.58   3 2.58
   3  0.333  0.167  0.310-   4 2.58   4 2.58   4 2.58   2 2.58   2 2.58   2 2.58
   4  0.667  0.833  0.236-   1 2.49   1 2.49   1 2.49   3 2.58   3 2.58   3 2.58

IMPORTANT INFORMATION: All symmetrisations will be switched off!
NOSYMM: (Re-)initialisation of all symmetry stuff for point group C_1.

 KPOINTS: Automatic mesh

Automatic generation of k-mesh.
Space group operators:
 irot       det(A)        alpha          n_x          n_y          n_z        tau_x        tau_y        tau_z
    1     1.000000     0.000000     1.000000     0.000000     0.000000     0.000000     0.000000     0.000000

 Subroutine IBZKPT returns following result:

 Found     64 irreducible k-points:

 Following reciprocal coordinates:
            Coordinates               Weight
  0.000000  0.000000  0.000000      1.000000
  0.125000 -0.000000  0.000000      1.000000
  0.250000 -0.000000  0.000000      1.000000
  0.375000 -0.000000  0.000000      1.000000
  0.500000 -0.000000  0.000000      1.000000
 -0.375000  0.000000  0.000000      1.000000
 -0.250000  0.000000  0.000000      1.000000
 -0.125000  0.000000  0.000000      1.000000
  0.000000  0.125000  0.000000      1.000000
  0.125000  0.125000  0.000000      1.000000
  0.250000  0.125000  0.000000      1.000000
  0.375000  0.125000  0.000000      1.000000
  0.500000  0.125000  0.000000      1.000000
 -0.375000  0.125000  0.000000      1.000000
 -0.250000  0.125000  0.000000      1.000000
 -0.125000  0.125000  0.000000      1.000000
  0.000000  0.250000  0.000000      1.000000
  0.125000  0.250000  0.000000      1.000000
  0.250000  0.250000  0.000000      1.000000
  0.375000  0.250000  0.000000      1.000000
  0.500000  0.250000  0.000000      1.000000
 -0.375000  0.250000  0.000000      1.000000
 -0.250000  0.250000  0.000000      1.000000
 -0.125000  0.250000  0.000000      1.000000
  0.000000  0.375000  0.000000      1.000000
  0.125000  0.375000  0.000000      1.000000
  0.250000  0.375000  0.000000      1.000000
  0.375000  0.375000  0.000000      1.000000
  0.500000  0.375000  0.000000      1.000000
 -0.375000  0.375000  0.000000      1.000000
 -0.250000  0.375000  0.000000      1.000000
 -0.125000  0.375000  0.000000      1.000000
  0.000000  0.500000  0.000000      1.000000
  0.125000  0.500000  0.000000      1.000000
  0.250000  0.500000  0.000000      1.000000
  0.375000  0.500000  0.000000      1.000000
  0.500000  0.500000  0.000000      1.000000
 -0.375000  0.500000  0.000000      1.000000
 -0.250000  0.500000  0.000000      1.000000
 -0.125000  0.500000  0.000000      1.000000
 -0.000000 -0.375000  0.000000      1.000000
  0.125000 -0.375000  0.000000      1.000000
  0.250000 -0.375000  0.000000      1.000000
  0.375000 -0.375000  0.000000      1.000000
  0.500000 -0.375000  0.000000      1.000000
 -0.375000 -0.375000  0.000000      1.000000
 -0.250000 -0.375000  0.000000      1.000000
 -0.125000 -0.375000  0.000000      1.000000
 -0.000000 -0.250000  0.000000      1.000000
  0.125000 -0.250000  0.000000      1.000000
  0.250000 -0.250000  0.000000      1.000000
  0.375000 -0.250000  0.000000      1.000000
  0.500000 -0.250000  0.000000      1.000000
 -0.375000 -0.250000  0.000000      1.000000
 -0.250000 -0.250000  0.000000      1.000000
 -0.125000 -0.250000  0.000000      1.000000
 -0.000000 -0.125000  0.000000      1.000000
  0.125000 -0.125000  0.000000      1.000000
  0.250000 -0.125000  0.000000      1.000000
  0.375000 -0.125000  0.000000      1.000000
  0.500000 -0.125000  0.000000      1.000000
 -0.375000 -0.125000  0.000000      1.000000
 -0.250000 -0.125000  0.000000      1.000000
 -0.125000 -0.125000  0.000000      1.000000

 Following cartesian coordinates:
            Coordinates               Weight
  0.000000  0.000000  0.000000      1.000000
  0.034389  0.019398  0.000000      1.000000
  0.068778  0.038796  0.000000      1.000000
  0.103167  0.058193  0.000000      1.000000
  0.137557  0.077591  0.000000      1.000000
 -0.103167 -0.058193  0.000000      1.000000
 -0.068778 -0.038796  0.000000      1.000000
 -0.034389 -0.019398  0.000000      1.000000
  0.000396  0.039481  0.000000      1.000000
  0.034785  0.058879  0.000000      1.000000
  0.069174  0.078276  0.000000      1.000000
  0.103563  0.097674  0.000000      1.000000
  0.137952  0.117072  0.000000      1.000000
 -0.102772 -0.018713  0.000000      1.000000
 -0.068383  0.000685  0.000000      1.000000
 -0.033994  0.020083  0.000000      1.000000
  0.000791  0.078962  0.000000      1.000000
  0.035180  0.098359  0.000000      1.000000
  0.069570  0.117757  0.000000      1.000000
  0.103959  0.137155  0.000000      1.000000
  0.138348  0.156553  0.000000      1.000000
 -0.102376  0.020768  0.000000      1.000000
 -0.067987  0.040166  0.000000      1.000000
 -0.033598  0.059564  0.000000      1.000000
  0.001187  0.118442  0.000000      1.000000
  0.035576  0.137840  0.000000      1.000000
  0.069965  0.157238  0.000000      1.000000
  0.104354  0.176636  0.000000      1.000000
  0.138743  0.196033  0.000000      1.000000
 -0.101981  0.060249  0.000000      1.000000
 -0.067591  0.079647  0.000000      1.000000
 -0.033202  0.099045  0.000000      1.000000
  0.001582  0.157923  0.000000      1.000000
  0.035972  0.177321  0.000000      1.000000
  0.070361  0.196719  0.000000      1.000000
  0.104750  0.216116  0.000000      1.000000
  0.139139  0.235514  0.000000      1.000000
 -0.101585  0.099730  0.000000      1.000000
 -0.067196  0.119128  0.000000      1.000000
 -0.032807  0.138525  0.000000      1.000000
 -0.001187 -0.118442  0.000000      1.000000
  0.033202 -0.099045  0.000000      1.000000
  0.067591 -0.079647  0.000000      1.000000
  0.101981 -0.060249  0.000000      1.000000
  0.136370 -0.040851  0.000000      1.000000
 -0.104354 -0.176636  0.000000      1.000000
 -0.069965 -0.157238  0.000000      1.000000
 -0.035576 -0.137840  0.000000      1.000000
 -0.000791 -0.078962  0.000000      1.000000
  0.033598 -0.059564  0.000000      1.000000
  0.067987 -0.040166  0.000000      1.000000
  0.102376 -0.020768  0.000000      1.000000
  0.136765 -0.001370  0.000000      1.000000
 -0.103959 -0.137155  0.000000      1.000000
 -0.069570 -0.117757  0.000000      1.000000
 -0.035180 -0.098359  0.000000      1.000000
 -0.000396 -0.039481  0.000000      1.000000
  0.033994 -0.020083  0.000000      1.000000
  0.068383 -0.000685  0.000000      1.000000
  0.102772  0.018713  0.000000      1.000000
  0.137161  0.038110  0.000000      1.000000
 -0.103563 -0.097674  0.000000      1.000000
 -0.069174 -0.078276  0.000000      1.000000
 -0.034785 -0.058879  0.000000      1.000000

 SYSTEM =  unknown system
 POSCAR =  ClBrPt2

 Startparameter for this run:
   NWRITE =      2    write-flag & timer
   PREC   = accura    normal or accurate (medium, high low for compatibility)
   ISTART =      0    job   : 0-new  1-cont  2-samecut
   ICHARG =      2    charge: 1-file 2-atom 10-const
   ISPIN  =      1    spin polarized calculation?
   LNONCOLLINEAR =      F non collinear calculations
   LSORBIT =      F    spin-orbit coupling
   INIWAV =      1    electr: 0-lowe 1-rand  2-diag
   LASPH  =      F    aspherical Exc in radial PAW
   METAGGA=      F    non-selfconsistent MetaGGA calc.

 Electronic Relaxation 1
   ENCUT  =  400.0 eV  29.40 Ry    5.42 a.u.   5.96  5.96 32.61*2*pi/ulx,y,z
   ENINI  =  400.0     initial cutoff
   ENAUG  =  503.9 eV  augmentation charge cutoff
   NELM   =     60;   NELMIN=  2; NELMDL= -5     # of ELM steps
   EDIFF  = 0.5E-07   stopping-criterion for ELM
   LREAL  =      F    real-space projection
   NLSPLINE    = F    spline interpolate recip. space projectors
   LCOMPAT=      F    compatible to vasp.4.4
   GGA_COMPAT  = T    GGA compatible to vasp.4.4-vasp.4.6
   LMAXPAW     = -100 max onsite density
   LMAXMIX     =    2 max onsite mixed and CHGCAR
   VOSKOWN=      0    Vosko Wilk Nusair interpolation
   ROPT   =    0.00000   0.00000   0.00000
 Ionic relaxation
   EDIFFG = 0.5E-06   stopping-criterion for IOM
   NSW    =    100    number of steps for IOM
   NBLOCK =      1;   KBLOCK =    100    inner block; outer block
   IBRION =      1    ionic relax: 0-MD 1-quasi-New 2-CG
   NFREE  =      0    steps in history (QN), initial steepest desc. (CG)
   ISIF   =      3    stress and relaxation
   IWAVPR =     11    prediction:  0-non 1-charg 2-wave 3-comb
   ISYM   =     -1    0-nonsym 1-usesym 2-fastsym
   LCORR  =      T    Harris-Foulkes like correction to forces

   POTIM  = 0.5000    time-step for ionic-motion
   TEIN   =    0.0    initial temperature
   TEBEG  =    0.0;   TEEND  =   0.0 temperature during run
   SMASS  =  -3.00    Nose mass-parameter (am)
   estimated Nose-frequenzy (Omega)   =  0.10E-29 period in steps =****** mass=  -0.305E-27a.u.
   SCALEE = 1.0000    scale energy and forces
   NPACO  =    256;   APACO  = 16.0  distance and # of slots for P.C.
   PSTRESS=    0.0 pullay stress

  Mass of Ions in am
   POMASS =  35.45 79.90195.08
  Ionic Valenz
   ZVAL   =   7.00  7.00 10.00
  Atomic Wigner-Seitz radii
  virtual crystal weights
   VCA    =   1.00  1.00  1.00
   NELECT =      34.0000    total number of electrons
   NUPDOWN=      -1.0000    fix difference up-down

 DOS related values:
   EMIN   =  10.00;   EMAX   =-10.00  energy-range for DOS
   EFERMI =   0.00
   ISMEAR =     0;   SIGMA  =   0.10  broadening in eV -4-tet -1-fermi 0-gaus

 Electronic relaxation 2 (details)
   IALGO  =     38    algorithm
   LDIAG  =      T    sub-space diagonalisation (order eigenvalues)
   LSUBROT=      F    optimize rotation matrix (better conditioning)
   TURBO    =      0    0=normal 1=particle mesh
   IRESTART =      0    0=no restart 2=restart with 2 vectors
   NREBOOT  =      0    no. of reboots
   NMIN     =      0    reboot dimension
   EREF     =   0.00    reference energy to select bands
   IMIX   =      4    mixing-type and parameters
[...]
 k-point 32 :  -0.1250 0.3750 0.0000  plane waves:    4221
 k-point 33 :   0.0000 0.5000 0.0000  plane waves:    4208
 k-point 34 :   0.1250 0.5000 0.0000  plane waves:    4225
 k-point 35 :   0.2500 0.5000 0.0000  plane waves:    4214
 k-point 36 :   0.3750 0.5000 0.0000  plane waves:    4225
 k-point 37 :   0.5000 0.5000 0.0000  plane waves:    4208
 k-point 38 :  -0.3750 0.5000 0.0000  plane waves:    4225
 k-point 39 :  -0.2500 0.5000 0.0000  plane waves:    4214
 k-point 40 :  -0.1250 0.5000 0.0000  plane waves:    4225
 k-point 41 :  -0.0000-0.3750 0.0000  plane waves:    4184
 k-point 42 :   0.1250-0.3750 0.0000  plane waves:    4221
 k-point 43 :   0.2500-0.3750 0.0000  plane waves:    4221
 k-point 44 :   0.3750-0.3750 0.0000  plane waves:    4184
 k-point 45 :   0.5000-0.3750 0.0000  plane waves:    4225
 k-point 46 :  -0.3750-0.3750 0.0000  plane waves:    4244
 k-point 47 :  -0.2500-0.3750 0.0000  plane waves:    4244
 k-point 48 :  -0.1250-0.3750 0.0000  plane waves:    4225
 k-point 49 :  -0.0000-0.2500 0.0000  plane waves:    4184
 k-point 50 :   0.1250-0.2500 0.0000  plane waves:    4184
 k-point 51 :   0.2500-0.2500 0.0000  plane waves:    4184
 k-point 52 :   0.3750-0.2500 0.0000  plane waves:    4221
 k-point 53 :   0.5000-0.2500 0.0000  plane waves:    4214
 k-point 54 :  -0.3750-0.2500 0.0000  plane waves:    4244
 k-point 55 :  -0.2500-0.2500 0.0000  plane waves:    4214
 k-point 56 :  -0.1250-0.2500 0.0000  plane waves:    4221
 k-point 57 :  -0.0000-0.1250 0.0000  plane waves:    4155
 k-point 58 :   0.1250-0.1250 0.0000  plane waves:    4155
 k-point 59 :   0.2500-0.1250 0.0000  plane waves:    4184
 k-point 60 :   0.3750-0.1250 0.0000  plane waves:    4221
 k-point 61 :   0.5000-0.1250 0.0000  plane waves:    4225
 k-point 62 :  -0.3750-0.1250 0.0000  plane waves:    4225
 k-point 63 :  -0.2500-0.1250 0.0000  plane waves:    4221
 k-point 64 :  -0.1250-0.1250 0.0000  plane waves:    4184

 maximum and minimum number of plane-waves per node :      4244     4155

 maximum number of plane-waves:      4244
 maximum index in each direction:
   IXMAX=    6   IYMAX=    6   IZMAX=   32
   IXMIN=   -6   IYMIN=   -6   IZMIN=  -32

 serial   3D FFT for wavefunctions
 parallel 3D FFT for charge:
    minimum data exchange during FFTs selected (reduces bandwidth)

 Broyden mixing: mesh for mixing (old mesh)
   NGX = 11   NGY = 11   NGZ = 65
  (NGX  = 48   NGY  = 48   NGZ  =280)
  gives a total of   7865 points

 initial charge density was supplied:
 charge density of overlapping atoms calculated
 number of electron      34.0000000 magnetization
 keeping initial charge density in first step

 Maximum index for augmentation-charges        10207 (set IRDMAX)

 First call to EWALD:  gamma=   0.289
 Maximum number of real-space cells 5x 5x 1
 Maximum number of reciprocal cells 2x 2x 8

--------------------------------------- Iteration      1(   1)  ---------------------------------------

 eigenvalue-minimisations  :  2816
 total energy-change (2. order) : 0.2441720E+03  (-0.1165079E+04)
 number of electron      34.0000000 magnetization
 augmentation part       34.0000000 magnetization

 DIPCOR: dipole corrections for dipol
 direction  3 min pos   213,
 dipolmoment           0.000000      0.000000     -0.000023 electrons x Angstroem
 Tr[quadrupol]       -80.183186

 energy correction for charged system         0.000000 eV
 dipol+quadrupol energy correction           -0.000000 eV
 added-field ion interaction          0.000215 eV  (added to PSCEN)

 Free energy of the ion-electron system (eV)
  alpha Z        PSCENC =        41.93302019
  Ewald energy   TEWEN  =      5929.68701242
  -Hartree energ DENC   =     -8117.30984524
  -exchange      EXHF   =         0.00000000
  -V(xc)+E(xc)   XCENC  =        37.14388846
  PAW double counting   =      2012.60260865    -1949.97488812
  entropy T*S    EENTRO =        -0.00974802
  eigenvalues    EBANDS =        53.71348470
  atomic energy  EATOM  =      2236.38650011
  Solvation  Ediel_sol  =         0.00000000
  free energy    TOTEN  =       244.17203315 eV

  energy without entropy =      244.18178116  energy(sigma->0) =      244.17690716

[...]

 eigenvalue-minimisations  :  4194
 total energy-change (2. order) :-0.2388534E+03  (-0.2271748E+03)
 number of electron      34.0000000 magnetization
 augmentation part       34.0000000 magnetization

[...]

 Broyden mixing:
  rms(total) = 0.15815E+01    rms(broyden)= 0.15814E+01
  rms(prec ) = 0.16058E+01
  weight for this iteration     100.00

[...]

 eigenvalues of (default mixing * dielectric matrix)
  average eigenvalue GAMMA=   1.8500
  1.8500

[...]

 eigenvalues of (default mixing * dielectric matrix)
  average eigenvalue GAMMA=   1.9578
  7.7840  6.9649  2.8483  2.6846  2.4824  2.4824  1.6376  1.6376  0.3785  0.6058
  1.1180  1.1180  1.0320  1.0320  0.7934  0.9526  0.9019  0.9019  0.8998  0.8998

[...]

 average (electrostatic) potential at core
  the test charge radii are     0.9406  1.0178  1.2059
  (the norm of the test charge is              1.0000)
       1 -97.8430       2 -67.9818       3 -75.1969       4 -75.1554

 E-fermi :  -1.5724     XC(G=0):  -4.2417     alpha+bet : -3.8759

 k-point     1 :       0.0000    0.0000    0.0000
  band No.  band energies     occupation
      1     -17.6707      2.00000
      2     -17.5260      2.00000
      3      -8.1417      2.00000
      4      -6.9707      2.00000
      5      -6.9706      2.00000
      6      -6.8881      2.00000
      7      -5.9593      2.00000
      8      -5.9593      2.00000
      9      -4.5270      2.00000
     10      -4.5270      2.00000
     11      -3.8205      2.00000
     12      -2.9209      2.00000
     13      -2.9209      2.00000
     14      -2.8116      2.00000
     15      -2.2352      2.00000
     16      -2.2352      2.00000
     17      -2.0833      2.00000
     18      -0.3455      0.00000
     19      -0.3455      0.00000
     20       2.0493      0.00000
     21       3.2535      0.00000
     22       3.8520      0.00000

[...]

 soft charge-density along one line, spin component           1
         0         1         2         3         4         5         6         7         8         9
 total charge-density along one line

------------------------ aborting loop because EDIFF is reached ----------------------------------------

         DFTD3 V3.0 Rev 1
 IVDW         = 11
 DF pbe
 parameters
 VDW_S6       =    1.0000
 VDW_S8       =    0.7220
 VDW_SR       =    1.2170
 rs18     =    1.0000
 alpha6   =   14.0000
 alpha8   =   16.0000
 k1-k3    =   16.0000    1.3333   -4.0000
 VDW_RADIUS   =   50.2022 A
 VDW_CNRADIUS =   21.1671 A
 Edisp (eV)   -1.23041

 E6    (eV) :    -0.3539
 E8    (eV) :    -0.8765
 % E8        : 71.24

  FORCE on cell =-STRESS in cart. coord.  units (eV):
  Direction    XX          YY          ZZ          XY          YZ          ZX
  Alpha Z    41.93281    41.93281    41.93281
  Ewald    7446.96224  7446.96229 -8964.23797     0.00013     0.00003    -0.00004
  Hartree  7922.72839  7922.72841 -7739.03836     0.00005     0.00001    -0.00001
  E(xc)    -141.01210  -141.01210  -141.52128     0.00000     0.00000    -0.00000
  Local  -15996.09667-15996.09669 16068.48209    -0.00012    -0.00003     0.00005
  n-local   142.22169   142.22169   144.04057    -0.00000     0.00000     0.00000
  augment    78.86883    78.86879    79.82831    -0.00003    -0.00000     0.00000
  Kinetic   505.20506   505.20504   510.64318    -0.00002    -0.00000     0.00001
  Fock        0.00000     0.00000     0.00000     0.00000     0.00000     0.00000
  vdW        -0.80148    -0.80148    -0.19521    -0.00000    -0.00000     0.00000
  Total       0.00876     0.00877    -0.06587     0.00000     0.00000     0.00000
  in kB       0.06067     0.06067    -0.45593     0.00000     0.00000     0.00003

 VOLUME and BASIS-vectors are now :
  energy-cutoff  :      400.00
  volume of cell :      231.48
      direct lattice vectors                 reciprocal lattice vectors
     3.655528009 -0.036629028  0.000000000     0.275113245  0.155182161  0.000000000
    -1.796041249  3.184094946  0.000000000     0.003164834  0.315846163  0.000000000
     0.000000000  0.000000000 20.000000000     0.000000000  0.000000000  0.050000000

[...]

 FORCES acting on ions
    electron-ion (+dipol)            ewald-force                    non-local-force                 convergence-correction
   0.824E-04 -.578E-04 0.982E+03   -.907E-04 0.636E-04 -.987E+03   0.798E-05 -.611E-05 0.510E+01   -.117E-06 0.169E-06 -.444E-03
   0.840E-04 -.574E-04 -.991E+03   -.889E-04 0.611E-04 0.994E+03   0.292E-05 -.166E-05 -.262E+01   -.173E-07 -.844E-08 -.250E-03
   -.748E-04 0.528E-04 -.562E+03   0.691E-04 -.481E-04 0.556E+03   0.437E-05 -.388E-05 0.645E+01   0.275E-07 0.856E-07 -.600E-03
   -.121E-03 0.831E-04 0.569E+03   0.110E-03 -.767E-04 -.563E+03   0.951E-05 -.602E-05 -.631E+01   0.127E-06 -.204E-06 -.806E-03
   -.291E-04 0.207E-04 -.261E+01   -.713E-14 0.183E-13 0.000E+00   0.248E-04 -.177E-04 0.261E+01   0.201E-07 0.429E-07 -.210E-02

 POSITION                                       TOTAL-FORCE (eV/Angst)
     -0.89783      1.59192      3.39123         0.000001     -0.000001      0.000941
     -0.89783      1.59192      7.69278        -0.000001      0.000001     -0.000884
      0.91936      0.51835      6.20213        -0.000000      0.000000     -0.000081
      0.94051      2.62887      4.71852         0.000000     -0.000001      0.000024
    total drift:                               -0.000004      0.000003     -0.000413

  FREE ENERGIE OF THE ION-ELECTRON SYSTEM (eV)
  free  energy   TOTEN  =       -17.78685941 eV

  energy  without entropy=      -17.78685941  energy(sigma->0) =      -17.78685941

 Quasi-Newton relaxation of ions (Broydens 2nd method)
  g(Force)  = 0.807E-07   g(Stress)= 0.000E+00

 Reset! Starting new Quasi-Newton update for ions

[...]

 eigenvalue-minimisations  :  3278
 total energy-change (2. order) : 0.3091031E-05  (-0.6359485E-06)
 number of electron      34.0000003 magnetization
 augmentation part        3.8454846 magnetization

[...]

 Broyden mixing:
  rms(total) = 0.15886E-03    rms(broyden)= 0.15885E-03
  rms(prec ) = 0.15976E-03
  weight for this iteration     100.00

[...]

--------------------------------------- Iteration      2(   2)  ---------------------------------------

 eigenvalue-minimisations  :  3452
 total energy-change (2. order) :-0.4442245E-07  (-0.2717390E-07)
 number of electron      34.0000003 magnetization
 augmentation part        3.8454846 magnetization

 DIPCOR: dipole corrections for dipol
 direction  3 min pos   213,
 dipolmoment           0.000000      0.000000     -0.036508 electrons x Angstroem
 Tr[quadrupol]       -80.418692

 energy correction for charged system         0.000000 eV
 dipol+quadrupol energy correction           -0.000521 eV
 added-field ion interaction          0.340694 eV  (added to PSCEN)

 Free energy of the ion-electron system (eV)
  alpha Z        PSCENC =        42.27297825
  Ewald energy   TEWEN  =      5929.77700936
  -Hartree energ DENC   =     -8106.50677616
  -exchange      EXHF   =         0.00000000
  -V(xc)+E(xc)   XCENC  =        36.84281840
  PAW double counting   =      2738.65785738    -2681.97113433
  entropy T*S    EENTRO =        -0.00000000
  eigenvalues    EBANDS =      -212.01570152
  atomic energy  EATOM  =      2236.38650011
  Solvation  Ediel_sol  =         0.00000000
  free energy    TOTEN  =       -16.55644851 eV

  energy without entropy =      -16.55644851  energy(sigma->0) =      -16.55644851

 average (electrostatic) potential at core
  the test charge radii are     0.9406  1.0178  1.2059
  (the norm of the test charge is              1.0000)
       1 -97.8451       2 -67.9839       3 -75.1990       4 -75.1574

 E-fermi :  -1.5744     XC(G=0):  -4.2392     alpha+bet : -3.8738

[...]

 k-point    64 :      -0.1250   -0.1250    0.0000
  band No.  band energies     occupation
      1     -17.4805      2.00000
      2     -17.3657      2.00000
      3      -7.8220      2.00000
      4      -7.1054      2.00000
      5      -6.9483      2.00000
      6      -6.4744      2.00000
      7      -6.3623      2.00000
      8      -5.7929      2.00000
      9      -5.0483      2.00000
     10      -4.9474      2.00000
     11      -4.3689      2.00000
     12      -3.1456      2.00000
     13      -2.8706      2.00000
     14      -2.5913      2.00000
     15      -2.4846      2.00000
     16      -2.4014      2.00000
     17      -2.0551      2.00000
     18      -0.3817      0.00000
     19       0.0681      0.00000
     20       3.5855      0.00000
     21       3.9607      0.00000
     22       4.4530      0.00000

 soft charge-density along one line, spin component           1
         0         1         2         3         4         5         6         7         8         9
 total charge-density along one line

------------------------ aborting loop because EDIFF is reached ----------------------------------------

         DFTD3 V3.0 Rev 1
 Edisp (eV)   -1.23041

 E6    (eV) :    -0.3539
 E8    (eV) :    -0.8765
 % E8        : 71.24

  FORCE on cell =-STRESS in cart. coord.  units (eV):
  Direction    XX          YY          ZZ          XY          YZ          ZX
  Alpha Z    41.93281    41.93281    41.93281
  Ewald    7447.06230  7447.06238 -8964.34812     0.00014     0.00001    -0.00003
  Hartree  7922.82200  7922.82203 -7739.13517     0.00005     0.00000    -0.00001
  E(xc)    -141.01231  -141.01231  -141.52156     0.00000     0.00000    -0.00000
  Local  -15996.29029-15996.29035 16068.68754    -0.00013    -0.00001     0.00004
  n-local   142.22276   142.22275   144.04178    -0.00000    -0.00000     0.00000
  augment    78.86867    78.86864    79.82822    -0.00003    -0.00000     0.00000
  Kinetic   505.20505   505.20503   510.64497    -0.00002    -0.00000     0.00001
  Fock        0.00000     0.00000     0.00000     0.00000     0.00000     0.00000
  vdW        -0.80147    -0.80148    -0.19514    -0.00000    -0.00000     0.00000
  Total       0.00950     0.00950    -0.06469     0.00000    -0.00000     0.00001
  in kB       0.06574     0.06576    -0.44778     0.00001    -0.00001     0.00004

 VOLUME and BASIS-vectors are now :
  energy-cutoff  :      400.00
  volume of cell :      231.48
      direct lattice vectors                 reciprocal lattice vectors
     3.655528009 -0.036629028  0.000000000     0.275113245  0.155182161  0.000000000
    -1.796041249  3.184094946  0.000000000     0.003164834  0.315846163  0.000000000
     0.000000000  0.000000000 20.000000000     0.000000000  0.000000000  0.050000000

  length of vectors
     3.655711519  3.655711256 20.000000000     0.315861996  0.315862019  0.050000000

 FORCES acting on ions
    electron-ion (+dipol)            ewald-force                    non-local-force                 convergence-correction
   0.835E-04 -.604E-04 0.982E+03   -.913E-04 0.652E-04 -.987E+03   0.760E-05 -.540E-05 0.510E+01   -.437E-06 0.706E-06 -.116E-02
   0.814E-04 -.535E-04 -.991E+03   -.866E-04 0.575E-04 0.994E+03   0.312E-05 -.198E-05 -.262E+01   0.252E-06 -.377E-06 0.239E-03
   -.749E-04 0.520E-04 -.562E+03   0.697E-04 -.477E-04 0.556E+03   0.442E-05 -.377E-05 0.645E+01   -.336E-06 0.348E-06 -.162E-02
   -.119E-03 0.819E-04 0.569E+03   0.108E-03 -.749E-04 -.563E+03   0.903E-05 -.558E-05 -.631E+01   0.701E-06 -.786E-06 -.173E-02
   -.287E-04 0.200E-04 -.261E+01   -.713E-14 0.183E-13 0.000E+00   0.242E-04 -.167E-04 0.261E+01   0.181E-06 -.110E-06 -.426E-02

 POSITION                                       TOTAL-FORCE (eV/Angst)
     -0.89783      1.59192      3.39127         0.000000     -0.000001      0.000474
     -0.89783      1.59192      7.69274        -0.000001      0.000001     -0.000495
      0.91936      0.51835      6.20213         0.000000      0.000000     -0.000139
      0.94051      2.62887      4.71852         0.000000     -0.000000      0.000160
    total drift:                               -0.000004      0.000003     -0.000444

  FREE ENERGIE OF THE ION-ELECTRON SYSTEM (eV)
  free  energy   TOTEN  =       -17.78685952 eV

  energy  without entropy=      -17.78685952  energy(sigma->0) =      -17.78685952

 d Force = 0.6204655E-07[ 0.434E-07, 0.807E-07]  d Energy = 0.1166705E-06-0.546E-07
 d Force =-0.8999694E-01[-0.900E-01,-0.900E-01]  d Ewald  =-0.8999694E-01 0.130E-09

 Quasi-Newton relaxation of ions (Broydens 2nd method)
  g(Force)  = 0.248E-07   g(Stress)= 0.000E+00

 retain information from N=  1 steps
 eigenvalues of (default step * inverse Hessian matrix)
  average eigenvalue of G=   1.9818
 eigenvalue spectrum of G is  1.9818

 reached required accuracy - stopping structural energy minimisation
 writing wavefunctions