 vasp.5.4.4.16052018 (build Dec 07 2020 11:33:42) complex

 executed on             LinuxIFC date 2020.12.13  00:48:14

 INCAR:
 POTCAR:    PAW_PBE Cl 06Sep2000
 POTCAR:    PAW_PBE Br 06Sep2000
 POTCAR:    PAW_PBE Pt 04Feb2005

 POTCAR:    PAW_PBE Cl 06Sep2000
   VRHFIN =Cl: s2p5

   TITEL  = PAW_PBE Cl 06Sep2000
   POMASS =   35.453; ZVAL   =    7.000    mass and valenz
   ENMAX  =  262.472; ENMIN  =  196.854 eV

 POTCAR:    PAW_PBE Br 06Sep2000
   VRHFIN =Br: s2p5

   TITEL  = PAW_PBE Br 06Sep2000
   POMASS =   79.904; ZVAL   =    7.000    mass and valenz
   ENMAX  =  216.285; ENMIN  =  162.214 eV

 POTCAR:    PAW_PBE Pt 04Feb2005
   VRHFIN =Pt: s1d9

   TITEL  = PAW_PBE Pt 04Feb2005
   POMASS =  195.080; ZVAL   =   10.000    mass and valenz
   ENMAX  =  230.283; ENMIN  =  172.712 eV

  PAW_PBE Cl 06Sep2000                  :
  PAW_PBE Br 06Sep2000                  :
  PAW_PBE Pt 04Feb2005                  :

 POSCAR: ClBrPt2
  positions in direct lattice
  velocities in cartesian coordinates
 exchange correlation table for  LEXCH =        8
   RHO(1)=    0.500       N(1)  =     2000
   RHO(2)=  100.500       N(2)  =     4000

 ion  position               nearest neighbor table
   1  0.000  0.500  0.168-   4 2.50   4 2.50   4 2.50
   2  0.000  0.500  0.386-   3 2.59   3 2.59   3 2.59
   3  0.333  0.167  0.310-   4 2.58   4 2.58   2 2.59   2 2.59   4 2.59   2 2.59
   4  0.667  0.833  0.236-   1 2.50   1 2.50   1 2.50   3 2.58   3 2.58   3 2.59

IMPORTANT INFORMATION: All symmetrisations will be switched off!
NOSYMM: (Re-)initialisation of all symmetry stuff for point group C_1.

 KPOINTS: Automatic mesh

Automatic generation of k-mesh.
Space group operators:
 irot       det(A)        alpha          n_x          n_y          n_z        tau_x        tau_y        tau_z
    1     1.000000     0.000000     1.000000     0.000000     0.000000     0.000000     0.000000     0.000000

 Subroutine IBZKPT returns following result:

 Found     16 irreducible k-points:

 Following reciprocal coordinates:
            Coordinates               Weight
  0.000000  0.000000  0.000000      1.000000
  0.250000 -0.000000  0.000000      1.000000
  0.500000 -0.000000  0.000000      1.000000
 -0.250000  0.000000  0.000000      1.000000
  0.000000  0.250000  0.000000      1.000000
  0.250000  0.250000  0.000000      1.000000
  0.500000  0.250000  0.000000      1.000000
 -0.250000  0.250000  0.000000      1.000000
  0.000000  0.500000  0.000000      1.000000
  0.250000  0.500000  0.000000      1.000000
  0.500000  0.500000  0.000000      1.000000
 -0.250000  0.500000  0.000000      1.000000
 -0.000000 -0.250000  0.000000      1.000000
  0.250000 -0.250000  0.000000      1.000000
  0.500000 -0.250000  0.000000      1.000000
 -0.250000 -0.250000  0.000000      1.000000

 Following cartesian coordinates:
            Coordinates               Weight
  0.000000  0.000000  0.000000      1.000000
  0.069128  0.038799  0.000000      1.000000
  0.138256  0.077597  0.000000      1.000000
 -0.069128 -0.038799  0.000000      1.000000
  0.000791  0.078968  0.000000      1.000000
  0.069919  0.117767  0.000000      1.000000
  0.139047  0.156565  0.000000      1.000000
 -0.068337  0.040169  0.000000      1.000000
  0.001583  0.157936  0.000000      1.000000
  0.070710  0.196735  0.000000      1.000000
  0.139838  0.235533  0.000000      1.000000
 -0.067545  0.119137  0.000000      1.000000
 -0.000791 -0.078968  0.000000      1.000000
  0.068337 -0.040169  0.000000      1.000000
  0.137464 -0.001371  0.000000      1.000000
 -0.069919 -0.117767  0.000000      1.000000

 SYSTEM =  unknown system
 POSCAR =  ClBrPt2

 Startparameter for this run:
   NWRITE =      2    write-flag & timer
   PREC   = accura    normal or accurate (medium, high low for compatibility)
   ISTART =      0    job   : 0-new  1-cont  2-samecut
   ICHARG =      2    charge: 1-file 2-atom 10-const
   ISPIN  =      1    spin polarized calculation?
   LNONCOLLINEAR =      F non collinear calculations
   LSORBIT =      F    spin-orbit coupling
   INIWAV =      1    electr: 0-lowe 1-rand  2-diag
   LASPH  =      F    aspherical Exc in radial PAW
   METAGGA=      F    non-selfconsistent MetaGGA calc.

 Electronic Relaxation 1
   ENCUT  =  300.0 eV  22.05 Ry    4.70 a.u.   5.14  5.16 28.25*2*pi/ulx,y,z
   ENINI  =  300.0     initial cutoff
   ENAUG  =  503.9 eV  augmentation charge cutoff
   NELM   =     60;   NELMIN=  2; NELMDL= -5     # of ELM steps
   EDIFF  = 0.5E-04   stopping-criterion for ELM
   LREAL  =      F    real-space projection
   NLSPLINE    = F    spline interpolate recip. space projectors
   LCOMPAT=      F    compatible to vasp.4.4
   GGA_COMPAT  = T    GGA compatible to vasp.4.4-vasp.4.6
   LMAXPAW     = -100 max onsite density
   LMAXMIX     =    2 max onsite mixed and CHGCAR
   VOSKOWN=      0    Vosko Wilk Nusair interpolation
   ROPT   =    0.00000   0.00000   0.00000
 Ionic relaxation
   EDIFFG = 0.5E-03   stopping-criterion for IOM
   NSW    =    100    number of steps for IOM
   NBLOCK =      1;   KBLOCK =    100    inner block; outer block
   IBRION =      1    ionic relax: 0-MD 1-quasi-New 2-CG
   NFREE  =      0    steps in history (QN), initial steepest desc. (CG)
   ISIF   =      3    stress and relaxation
   IWAVPR =     11    prediction:  0-non 1-charg 2-wave 3-comb
   ISYM   =     -1    0-nonsym 1-usesym 2-fastsym
   LCORR  =      T    Harris-Foulkes like correction to forces

   POTIM  = 0.5000    time-step for ionic-motion
   TEIN   =    0.0    initial temperature
   TEBEG  =    0.0;   TEEND  =   0.0 temperature during run
   SMASS  =  -3.00    Nose mass-parameter (am)
   estimated Nose-frequenzy (Omega)   =  0.10E-29 period in steps =****** mass=  -0.302E-27a.u.
   SCALEE = 1.0000    scale energy and forces
   NPACO  =    256;   APACO  = 16.0  distance and # of slots for P.C.
   PSTRESS=    0.0 pullay stress

  Mass of Ions in am
   POMASS =  35.45 79.90195.08
  Ionic Valenz
   ZVAL   =   7.00  7.00 10.00
  Atomic Wigner-Seitz radii
  virtual crystal weights
   VCA    =   1.00  1.00  1.00
   NELECT =      34.0000    total number of electrons
   NUPDOWN=      -1.0000    fix difference up-down

 DOS related values:
   EMIN   =  10.00;   EMAX   =-10.00  energy-range for DOS
   EFERMI =   0.00
   ISMEAR =     0;   SIGMA  =   0.10  broadening in eV -4-tet -1-fermi 0-gaus

 Electronic relaxation 2 (details)
   IALGO  =     38    algorithm
   LDIAG  =      T    sub-space diagonalisation (order eigenvalues)
   LSUBROT=      F    optimize rotation matrix (better conditioning)
   TURBO    =      0    0=normal 1=particle mesh
   IRESTART =      0    0=no restart 2=restart with 2 vectors
   NREBOOT  =      0    no. of reboots
   NMIN     =      0    reboot dimension
   EREF     =   0.00    reference energy to select bands
   IMIX   =      4    mixing-type and parameters
     AMIX     =   0.40;   BMIX     =  1.00
     AMIX_MAG =   1.60;   BMIX_MAG =  1.00
     AMIN     =   0.10
     WC   =   100.;   INIMIX=   1;  MIXPRE=   1;  MAXMIX= -45

 Intra band minimization:
   WEIMIN = 0.0010     energy-eigenvalue tresh-hold
   EBREAK =  0.57E-06  absolut break condition
   DEPER  =   0.30     relativ break condition

   TIME   =   0.40     timestep for ELM

  volume/ion in A,a.u.               =      57.57       388.50
  Fermi-wavevector in a.u.,A,eV,Ry     =   0.865265  1.635114 10.186465  0.748684
  Thomas-Fermi vector in A             =   1.983483

 Write flags
   LWAVE        =      T    write WAVECAR
   LDOWNSAMPLE  =      F    k-point downsampling of WAVECAR
   LCHARG       =      T    write CHGCAR
   LVTOT        =      F    write LOCPOT, total local potential
   LVHAR        =      F    write LOCPOT, Hartree potential only
   LELF         =      F    write electronic localiz. function (ELF)
   LORBIT       =      0    0 simple, 1 ext, 2 COOP (PROOUT), +10 PAW based schemes

 Dipole corrections
   LMONO  =      F    monopole corrections only (constant potential shift)
   LDIPOL =      T    correct potential (dipole corrections)
   IDIPOL =      3    1-x, 2-y, 3-z, 4-all directions
   EPSILON=  1.0000000 bulk dielectric constant

 Exchange correlation treatment:
   GGA     =    --    GGA type
   VOSKOWN=      0    Vosko Wilk Nusair interpolation
   LHFCALC =     F    Hartree Fock is set to
   LHFONE  =     F    Hartree Fock one center treatment
   AEXX    =    0.0000 exact exchange contribution

 Linear response parameters
   LEPSILON=     F    determine dielectric tensor
   LRPA    =     F    only Hartree local field effects (RPA)
   LNABLA  =     F    use nabla operator in PAW spheres
   LVEL    =     F    velocity operator in full k-point grid
   LINTERFAST=   F  fast interpolation
   KINTER  =     0    interpolate to denser k-point grid
   CSHIFT  =0.1000    complex shift for real part using Kramers Kronig
   OMEGAMAX=  -1.0    maximum frequency
   DEG_THRESHOLD= 0.2000000E-02 threshold for treating states as degnerate
   RTIME   =   -0.100 relaxation time in fs
  (WPLASMAI=    0.000 imaginary part of plasma frequency in eV, 0.658/RTIME)
   DFIELD  = 0.0000000 0.0000000 0.0000000 field for delta impulse in time

 Orbital magnetization related:
   ORBITALMAG=     F  switch on orbital magnetization
   LCHIMAG   =     F  perturbation theory with respect to B field
   DQ        =  0.001000  dq finite difference perturbation B field
   LLRAUG    =     F  two centre corrections for induced B field

 quasi-Newton-method for relaxation of ions
 charge density and potential will be updated during run
 non-spin polarized calculation
 Variant of blocked Davidson
 Davidson routine will perform the subspace rotation
 perform sub-space diagonalisation
    after iterative eigenvector-optimisation
 modified Broyden-mixing scheme, WC =      100.0
 initial mixing is a Kerker type mixing with AMIX =  0.4000 and BMIX =      1.0000
 Hartree-type preconditioning will be used
 using additional bands            5
 reciprocal scheme for non local part
 use partial core corrections
 calculate Harris-corrections to forces
   (improved forces if not selfconsistent)
 use gradient corrections
 use of overlap-Matrix (Vanderbilt PP)
 Gauss-broadening in eV      SIGMA  =   0.10

  energy-cutoff  :      300.00
  volume of cell :      230.28
      direct lattice vectors                 reciprocal lattice vectors
     3.636944978 -0.036443352  0.000000000     0.276511146  0.155194915  0.000000000
    -1.786911496  3.183744431  0.000000000     0.003165139  0.315872032  0.000000000
     0.000000000  0.000000000 20.000000000     0.000000000  0.000000000  0.050000000

  length of vectors
     3.637127560  3.650928827 20.000000000     0.317086542  0.315887889  0.050000000

 k-points in units of 2pi/SCALE and weight: Automatic mesh
   0.00000000  0.00000000  0.00000000       0.062
   0.06912779  0.03879873  0.00000000       0.062
   0.13825557  0.07759746  0.00000000       0.062
  -0.06912779 -0.03879873  0.00000000       0.062
   0.00079128  0.07896801  0.00000000       0.062
   0.06991907  0.11776674  0.00000000       0.062
   0.13904686  0.15656547  0.00000000       0.062
  -0.06833650  0.04016928  0.00000000       0.062
   0.00158257  0.15793602  0.00000000       0.062
[...]
   0.25000000  0.50000000  0.00000000       0.062
   0.50000000  0.50000000  0.00000000       0.062
  -0.25000000  0.50000000  0.00000000       0.062
  -0.00000000 -0.25000000  0.00000000       0.062
   0.25000000 -0.25000000  0.00000000       0.062
   0.50000000 -0.25000000  0.00000000       0.062
  -0.25000000 -0.25000000  0.00000000       0.062

 position of ions in fractional coordinates (direct lattice)
   0.00003284  0.49996180  0.16834626
   0.00003221  0.49995994  0.38572384
   0.33336542  0.16662742  0.31048675
   0.66669892  0.83329448  0.23567645

 position of ions in cartesian coordinates  (Angst):
  -0.89326804  1.59174939  3.36692514
  -0.89326702  1.59174350  7.71447671
   0.91468324  0.51835017  6.20973506
   0.93572381  2.62869992  4.71352901

 k-point  1 :   0.0000 0.0000 0.0000  plane waves:    2701
 k-point  2 :   0.2500-0.0000 0.0000  plane waves:    2713
 k-point  3 :   0.5000-0.0000 0.0000  plane waves:    2730
 k-point  4 :  -0.2500 0.0000 0.0000  plane waves:    2713
 k-point  5 :   0.0000 0.2500 0.0000  plane waves:    2703
 k-point  6 :   0.2500 0.2500 0.0000  plane waves:    2725
 k-point  7 :   0.5000 0.2500 0.0000  plane waves:    2723
 k-point  8 :  -0.2500 0.2500 0.0000  plane waves:    2713
 k-point  9 :   0.0000 0.5000 0.0000  plane waves:    2718
 k-point 10 :   0.2500 0.5000 0.0000  plane waves:    2725
 k-point 11 :   0.5000 0.5000 0.0000  plane waves:    2730
 k-point 12 :  -0.2500 0.5000 0.0000  plane waves:    2725
 k-point 13 :  -0.0000-0.2500 0.0000  plane waves:    2703
 k-point 14 :   0.2500-0.2500 0.0000  plane waves:    2713
 k-point 15 :   0.5000-0.2500 0.0000  plane waves:    2723
 k-point 16 :  -0.2500-0.2500 0.0000  plane waves:    2725

 maximum and minimum number of plane-waves per node :      2730     2701

 maximum number of plane-waves:      2730
 maximum index in each direction:
   IXMAX=    5   IYMAX=    5   IZMAX=   28
   IXMIN=   -5   IYMIN=   -5   IZMIN=  -28

 serial   3D FFT for wavefunctions
 parallel 3D FFT for charge:
    minimum data exchange during FFTs selected (reduces bandwidth)

 Broyden mixing: mesh for mixing (old mesh)
   NGX = 11   NGY = 11   NGZ = 57
  (NGX  = 48   NGY  = 48   NGZ  =240)
  gives a total of   6897 points

 initial charge density was supplied:
 charge density of overlapping atoms calculated
 number of electron      34.0000000 magnetization
 keeping initial charge density in first step

 Maximum index for augmentation-charges         8796 (set IRDMAX)

 First call to EWALD:  gamma=   0.289
 Maximum number of real-space cells 5x 5x 1
 Maximum number of reciprocal cells 2x 2x 8

--------------------------------------- Iteration      1(   1)  ---------------------------------------

 eigenvalue-minimisations  :   712
 total energy-change (2. order) : 0.2196086E+03  (-0.1015264E+04)
 number of electron      34.0000000 magnetization
 augmentation part       34.0000000 magnetization

 DIPCOR: dipole corrections for dipol
 direction  3 min pos   183,
 dipolmoment           0.000000      0.000000     -0.000023 electrons x Angstroem
 Tr[quadrupol]       -79.740308

 energy correction for charged system         0.000000 eV
 dipol+quadrupol energy correction           -0.000000 eV
 added-field ion interaction          0.000199 eV  (added to PSCEN)

 Free energy of the ion-electron system (eV)
  alpha Z        PSCENC =        42.15071262
  Ewald energy   TEWEN  =      5915.53502155
  -Hartree energ DENC   =     -8104.38847520
  -exchange      EXHF   =         0.00000000
  -V(xc)+E(xc)   XCENC  =        37.10322339
  PAW double counting   =      2012.60260865    -1949.97488812
  entropy T*S    EENTRO =        -0.00815624
  eigenvalues    EBANDS =        30.28401677
  atomic energy  EATOM  =      2236.30457717
  Solvation  Ediel_sol  =         0.00000000
  free energy    TOTEN  =       219.60864059 eV

  energy without entropy =      219.61679682  energy(sigma->0) =      219.61271871

[...]

 eigenvalue-minimisations  :  1070
 total energy-change (2. order) :-0.2179383E+03  (-0.2103367E+03)
 number of electron      34.0000000 magnetization
 augmentation part       34.0000000 magnetization

[...]

 Broyden mixing:
  rms(total) = 0.15568E+01    rms(broyden)= 0.15566E+01
  rms(prec ) = 0.15813E+01
  weight for this iteration     100.00

[...]

 eigenvalues of (default mixing * dielectric matrix)
  average eigenvalue GAMMA=   1.8443
  1.8443

[...]

 average (electrostatic) potential at core
  the test charge radii are     0.9406  1.0178  1.2059
  (the norm of the test charge is              1.0000)
       1 -97.8104       2 -67.9666       3 -75.1397       4 -75.0910

 E-fermi :  -1.4795     XC(G=0):  -4.3349     alpha+bet : -3.9348

 k-point     1 :       0.0000    0.0000    0.0000
  band No.  band energies     occupation
      1     -17.6298      2.00000
      2     -17.4952      2.00000
      3      -8.1133      2.00000
      4      -6.8803      2.00000
      5      -6.8783      2.00000
      6      -6.8593      2.00000
      7      -5.8814      2.00000
      8      -5.8518      2.00000
      9      -4.4724      2.00000
     10      -4.4591      2.00000
     11      -3.8271      2.00000
     12      -2.8897      2.00000
     13      -2.8713      2.00000
     14      -2.7826      2.00000
     15      -2.2011      2.00000
     16      -2.1952      2.00000
     17      -2.1040      2.00000
     18      -0.3394      0.00000
     19      -0.3159      0.00000
     20       2.0810      0.00000
     21       3.1791      0.00000
     22       3.7860      0.00000

[...]

 soft charge-density along one line, spin component           1
         0         1         2         3         4         5         6         7         8         9
 total charge-density along one line

------------------------ aborting loop because EDIFF is reached ----------------------------------------

         DFTD3 V3.0 Rev 1
 IVDW         = 11
 DF pbe
 parameters
 VDW_S6       =    1.0000
 VDW_S8       =    0.7220
 VDW_SR       =    1.2170
 rs18     =    1.0000
 alpha6   =   14.0000
 alpha8   =   16.0000
 k1-k3    =   16.0000    1.3333   -4.0000
 VDW_RADIUS   =   50.2022 A
 VDW_CNRADIUS =   21.1671 A
 Edisp (eV)   -1.23243

 E6    (eV) :    -0.3552
 E8    (eV) :    -0.8772
 % E8        : 71.18

  FORCE on cell =-STRESS in cart. coord.  units (eV):
  Direction    XX          YY          ZZ          XY          YZ          ZX
  Alpha Z    42.15051    42.15051    42.15051
  Ewald    7430.81501  7428.37759 -8943.65794    -0.01242     3.12136     0.06224
  Hartree  7910.08165  7909.03928 -7724.96199    -0.00534     1.12103     0.02233
  E(xc)    -140.96083  -140.94791  -141.41763     0.00007     0.00249     0.00005
  Local  -15967.85552-15964.18395 16035.10449     0.01874    -4.08075    -0.08135
  n-local   141.69990   141.43265   143.06267    -0.00132     0.11995     0.00240
  augment    78.84226    78.82475    79.75755    -0.00013    -0.02812    -0.00056
  Kinetic   505.75130   505.48969   509.72949    -0.00132    -0.12215    -0.00244
  Fock        0.00000     0.00000     0.00000     0.00000     0.00000     0.00000
  vdW        -0.78232    -0.79867    -0.23912    -0.00008    -0.00279    -0.00006
  Total      -0.25803    -0.61606    -0.47197    -0.00180     0.13103     0.00262
  in kB      -1.79523    -4.28626    -3.28376    -0.01253     0.91163     0.01821

 VOLUME and BASIS-vectors are now :
  energy-cutoff  :      300.00
  volume of cell :      230.28
      direct lattice vectors                 reciprocal lattice vectors
     3.636944978 -0.036443352  0.000000000     0.276511146  0.155194915  0.000000000
    -1.786911496  3.183744431  0.000000000     0.003165139  0.315872032  0.000000000
     0.000000000  0.000000000 20.000000000     0.000000000  0.000000000  0.050000000

[...]

 FORCES acting on ions
    electron-ion (+dipol)            ewald-force                    non-local-force                 convergence-correction
   0.142E-01 0.704E+00 0.986E+03   -.148E-01 -.738E+00 -.991E+03   0.187E-03 0.127E-01 0.559E+01   -.318E-04 0.357E-03 -.924E-01
   -.115E-01 -.580E+00 -.995E+03   0.119E-01 0.602E+00 0.997E+03   0.966E-04 0.453E-02 -.273E+01   -.106E-04 -.242E-03 0.112E+00
   -.462E-02 -.225E+00 -.565E+03   0.438E-02 0.213E+00 0.558E+03   0.564E-03 0.275E-01 0.648E+01   0.124E-05 0.827E-04 0.164E+00
   0.142E-02 0.814E-01 0.570E+03   -.146E-02 -.777E-01 -.564E+03   -.481E-03 -.257E-01 -.638E+01   0.998E-04 -.348E-04 -.674E-01
   -.411E-03 -.191E-01 -.308E+01   0.153E-13 -.319E-14 -.114E-12   0.367E-03 0.191E-01 0.296E+01   0.586E-04 0.163E-03 0.117E+00

 POSITION                                       TOTAL-FORCE (eV/Angst)
     -0.89327      1.59175      3.36693        -0.000413     -0.020512      0.041336
     -0.89327      1.59174      7.71448         0.000518      0.026515     -0.051042
      0.91468      0.51835      6.20974         0.000317      0.015744     -0.048205
      0.93572      2.62870      4.71353        -0.000421     -0.021747      0.057911
    total drift:                                0.000014      0.000096     -0.004460

  FREE ENERGIE OF THE ION-ELECTRON SYSTEM (eV)
  free  energy   TOTEN  =       -17.79876194 eV

  energy  without entropy=      -17.79876194  energy(sigma->0) =      -17.79876194

 Quasi-Newton relaxation of ions (Broydens 2nd method)
  g(Force)  = 0.571E-03   g(Stress)= 0.803E-03

 Reset! Starting new Quasi-Newton update for ions

[...]

         DFTD3 V3.0 Rev 1
 Edisp (eV)   -1.23519

[...]

 d Force = 0.2945993E-03[ 0.182E-04, 0.571E-03]  d Energy = 0.5401681E-03-0.246E-03
 d Force =-0.7315194E+01[-0.733E+01,-0.730E+01]  d Ewald  =-0.3052747E+02 0.232E+02

[...]

 retain information from N=  1 steps
 eigenvalues of (default step * inverse Hessian matrix)
  average eigenvalue of G=   0.6260
 eigenvalue spectrum of G is  0.6260

[...]

 eigenvalue-minimisations  :   704
 total energy-change (2. order) :-0.1576854E-02  (-0.3493852E-02)
 number of electron      34.0000007 magnetization
 augmentation part        3.8553812 magnetization

[...]

 Broyden mixing:
  rms(total) = 0.58202E-02    rms(broyden)= 0.58194E-02
  rms(prec ) = 0.61561E-02
  weight for this iteration     100.00

 eigenvalues of (default mixing * dielectric matrix)
  average eigenvalue GAMMA=   1.0474
  1.0474

[...]

--------------------------------------- Iteration      3(   3)  ---------------------------------------

 eigenvalue-minimisations  :   610
 total energy-change (2. order) : 0.4988730E-04  (-0.9355699E-05)
 number of electron      34.0000007 magnetization
 augmentation part        3.8490222 magnetization

 DIPCOR: dipole corrections for dipol
 direction  3 min pos   184,
 dipolmoment           0.000000      0.000000     -0.036230 electrons x Angstroem
 Tr[quadrupol]       -79.746589

 energy correction for charged system         0.000000 eV
 dipol+quadrupol energy correction           -0.000517 eV
 added-field ion interaction          0.236854 eV  (added to PSCEN)

 Free energy of the ion-electron system (eV)
  alpha Z        PSCENC =        42.46882597
  Ewald energy   TEWEN  =      5937.26102656
  -Hartree energ DENC   =     -8115.34222531
  -exchange      EXHF   =         0.00000000
  -V(xc)+E(xc)   XCENC  =        36.82878365
  PAW double counting   =      2738.96351772    -2682.24623444
  entropy T*S    EENTRO =        -0.00000000
  eigenvalues    EBANDS =      -210.80356634
  atomic energy  EATOM  =      2236.30457717
  Solvation  Ediel_sol  =         0.00000000
  free energy    TOTEN  =       -16.56529502 eV

  energy without entropy =      -16.56529502  energy(sigma->0) =      -16.56529502

 average (electrostatic) potential at core
  the test charge radii are     0.9406  1.0178  1.2059
  (the norm of the test charge is              1.0000)
       1 -97.8235       2 -67.9804       3 -75.1500       4 -75.1036

 E-fermi :  -1.4802     XC(G=0):  -4.3094     alpha+bet : -3.9046

[...]

 k-point    16 :      -0.2500   -0.2500    0.0000
  band No.  band energies     occupation
      1     -17.1822      2.00000
      2     -17.0295      2.00000
      3      -7.5522      2.00000
      4      -7.0949      2.00000
      5      -7.0393      2.00000
      6      -6.3381      2.00000
      7      -6.2324      2.00000
      8      -5.9067      2.00000
      9      -5.4026      2.00000
     10      -5.1722      2.00000
     11      -3.8521      2.00000
     12      -3.4658      2.00000
     13      -3.2491      2.00000
     14      -3.0325      2.00000
     15      -2.9753      2.00000
     16      -2.3746      2.00000
     17      -2.0573      2.00000
     18      -0.3170      0.00000
     19       1.2467      0.00000
     20       3.0169      0.00000
     21       4.5551      0.00000
     22       5.5136      0.00000

 soft charge-density along one line, spin component           1
         0         1         2         3         4         5         6         7         8         9
 total charge-density along one line

------------------------ aborting loop because EDIFF is reached ----------------------------------------

         DFTD3 V3.0 Rev 1
 Edisp (eV)   -1.23426

 E6    (eV) :    -0.3560
 E8    (eV) :    -0.8783
 % E8        : 71.16

  FORCE on cell =-STRESS in cart. coord.  units (eV):
  Direction    XX          YY          ZZ          XY          YZ          ZX
  Alpha Z    42.23249    42.23249    42.23249
  Ewald    7454.04494  7451.98948 -8968.77361    -0.00729     3.72794     0.08509
  Hartree  7932.20231  7931.25777 -7747.68394    -0.00361     1.33165     0.03023
  E(xc)    -140.99991  -140.98757  -141.46047     0.00007     0.00569     0.00014
  Local  -16013.30969-16010.06438 16082.71688     0.01228    -4.82589    -0.10983
  n-local   141.89366   141.64190   143.30474    -0.00105     0.11106     0.00255
  augment    78.86049    78.79438    79.76000    -0.00024    -0.02516    -0.00055
  Kinetic   506.00265   505.54408   509.88051    -0.00156    -0.15822    -0.00351
  Fock        0.00000     0.00000     0.00000     0.00000     0.00000     0.00000
  vdW        -0.77388    -0.79740    -0.23183    -0.00008    -0.00437    -0.00010
  Total       0.15305    -0.38926    -0.25524    -0.00148     0.16270     0.00402
  in kB       1.06692    -2.71353    -1.77926    -0.01033     1.13417     0.02799

 VOLUME and BASIS-vectors are now :
  energy-cutoff  :      300.00
  volume of cell :      229.83
      direct lattice vectors                 reciprocal lattice vectors
     3.629885512 -0.036443352  0.000000000     0.277048910  0.155194915  0.000000000
    -1.783443024  3.183744431  0.000000000     0.003171294  0.315872032  0.000000000
     0.000000000  0.000000000 20.000000000     0.000000000  0.000000000  0.050000000

  length of vectors
     3.630068449  3.649232471 20.000000000     0.317555601  0.315887951  0.050000000

 FORCES acting on ions
    electron-ion (+dipol)            ewald-force                    non-local-force                 convergence-correction
   0.203E-01 0.896E+00 0.988E+03   -.224E-01 -.978E+00 -.994E+03   0.845E-03 0.339E-01 0.559E+01   0.629E-03 0.213E-01 0.160E-01
   -.155E-01 -.683E+00 -.997E+03   0.167E-01 0.728E+00 0.100E+04   -.113E-04 0.673E-03 -.272E+01   -.396E-03 -.133E-01 0.562E-01
   -.415E-02 -.185E+00 -.566E+03   0.340E-02 0.155E+00 0.559E+03   0.536E-03 0.253E-01 0.651E+01   0.162E-03 0.449E-02 0.243E+00
   -.191E-02 -.784E-01 0.571E+03   0.234E-02 0.949E-01 -.565E+03   -.219E-03 -.115E-01 -.642E+01   -.274E-03 -.880E-02 0.151E+00
   -.125E-02 -.502E-01 -.342E+01   -.996E-14 -.146E-13 0.114E-12   0.115E-02 0.484E-01 0.296E+01   0.121E-03 0.368E-02 0.466E+00

 POSITION                                       TOTAL-FORCE (eV/Angst)
     -0.89158      1.58977      3.36953        -0.000625     -0.025957      0.009921
     -0.89148      1.59428      7.71156         0.000742      0.031402     -0.018764
      0.91293      0.51933      6.20832        -0.000065     -0.001477     -0.006027
      0.93387      2.62715      4.71526        -0.000051     -0.003967      0.014870
    total drift:                                0.000017      0.001877     -0.000627

  FREE ENERGIE OF THE ION-ELECTRON SYSTEM (eV)
  free  energy   TOTEN  =       -17.79955732 eV

  energy  without entropy=      -17.79955732  energy(sigma->0) =      -17.79955732

 d Force = 0.1187120E-03[ 0.603E-04, 0.177E-03]  d Energy = 0.2552069E-03-0.136E-03
 d Force = 0.4529392E-01[ 0.454E-01, 0.452E-01]  d Ewald  = 0.8801468E+01-0.876E+01

 Quasi-Newton relaxation of ions (Broydens 2nd method)
  g(Force)  = 0.115E-03   g(Stress)= 0.283E-03

 retain information from N=  2 steps
 eigenvalues of (default step * inverse Hessian matrix)
  average eigenvalue of G=   2.9588
 eigenvalue spectrum of G is  0.5324  5.3852

 reached required accuracy - stopping structural energy minimisation
 writing wavefunctions