 vasp.5.4.4.16052018 (build Dec 07 2020 11:33:42) complex

 executed on             LinuxIFC date 2020.12.16  02:49:27

 INCAR:
 POTCAR:    PAW_PBE Cl 06Sep2000
 POTCAR:    PAW_PBE Br 06Sep2000
 POTCAR:    PAW_PBE Pt 04Feb2005

 POTCAR:    PAW_PBE Cl 06Sep2000
   VRHFIN =Cl: s2p5

   TITEL  = PAW_PBE Cl 06Sep2000
   POMASS =   35.453; ZVAL   =    7.000    mass and valenz
   ENMAX  =  262.472; ENMIN  =  196.854 eV

 POTCAR:    PAW_PBE Br 06Sep2000
   VRHFIN =Br: s2p5

   TITEL  = PAW_PBE Br 06Sep2000
   POMASS =   79.904; ZVAL   =    7.000    mass and valenz
   ENMAX  =  216.285; ENMIN  =  162.214 eV

 POTCAR:    PAW_PBE Pt 04Feb2005
   VRHFIN =Pt: s1d9

   TITEL  = PAW_PBE Pt 04Feb2005
   POMASS =  195.080; ZVAL   =   10.000    mass and valenz
   ENMAX  =  230.283; ENMIN  =  172.712 eV

  PAW_PBE Cl 06Sep2000                  :
  PAW_PBE Br 06Sep2000                  :
  PAW_PBE Pt 04Feb2005                  :

 POSCAR: ClBrPt2
  positions in direct lattice
  velocities in cartesian coordinates
 exchange correlation table for  LEXCH =        8
   RHO(1)=    0.500       N(1)  =     2000
   RHO(2)=  100.500       N(2)  =     4000

 ion  position               nearest neighbor table
   1  0.000  0.500  0.170-   4 2.48   4 2.48   4 2.49
   2  0.000  0.500  0.385-   3 2.57   3 2.58   3 2.58
   3  0.333  0.167  0.310-   4 2.57   4 2.57   2 2.57   4 2.57   2 2.58   2 2.58
   4  0.667  0.833  0.236-   1 2.48   1 2.48   1 2.49   3 2.57   3 2.57   3 2.57

IMPORTANT INFORMATION: All symmetrisations will be switched off!
NOSYMM: (Re-)initialisation of all symmetry stuff for point group C_1.

 KPOINTS: Automatic mesh

Automatic generation of k-mesh.
Space group operators:
 irot       det(A)        alpha          n_x          n_y          n_z        tau_x        tau_y        tau_z
    1     1.000000     0.000000     1.000000     0.000000     0.000000     0.000000     0.000000     0.000000

 Subroutine IBZKPT returns following result:

 Found     64 irreducible k-points:

 Following reciprocal coordinates:
            Coordinates               Weight
  0.000000  0.000000  0.000000      1.000000
  0.125000 -0.000000  0.000000      1.000000
  0.250000 -0.000000  0.000000      1.000000
  0.375000 -0.000000  0.000000      1.000000
  0.500000 -0.000000  0.000000      1.000000
 -0.375000  0.000000  0.000000      1.000000
 -0.250000  0.000000  0.000000      1.000000
 -0.125000  0.000000  0.000000      1.000000
 -0.000000  0.125000  0.000000      1.000000
  0.125000  0.125000  0.000000      1.000000
  0.250000  0.125000  0.000000      1.000000
  0.375000  0.125000  0.000000      1.000000
  0.500000  0.125000  0.000000      1.000000
 -0.375000  0.125000  0.000000      1.000000
 -0.250000  0.125000  0.000000      1.000000
 -0.125000  0.125000  0.000000      1.000000
 -0.000000  0.250000  0.000000      1.000000
  0.125000  0.250000  0.000000      1.000000
  0.250000  0.250000  0.000000      1.000000
  0.375000  0.250000  0.000000      1.000000
  0.500000  0.250000  0.000000      1.000000
 -0.375000  0.250000  0.000000      1.000000
 -0.250000  0.250000  0.000000      1.000000
 -0.125000  0.250000  0.000000      1.000000
 -0.000000  0.375000  0.000000      1.000000
  0.125000  0.375000  0.000000      1.000000
  0.250000  0.375000  0.000000      1.000000
  0.375000  0.375000  0.000000      1.000000
  0.500000  0.375000  0.000000      1.000000
 -0.375000  0.375000  0.000000      1.000000
 -0.250000  0.375000  0.000000      1.000000
 -0.125000  0.375000  0.000000      1.000000
 -0.000000  0.500000  0.000000      1.000000
  0.125000  0.500000  0.000000      1.000000
  0.250000  0.500000  0.000000      1.000000
  0.375000  0.500000  0.000000      1.000000
  0.500000  0.500000  0.000000      1.000000
 -0.375000  0.500000  0.000000      1.000000
 -0.250000  0.500000  0.000000      1.000000
 -0.125000  0.500000  0.000000      1.000000
  0.000000 -0.375000  0.000000      1.000000
  0.125000 -0.375000  0.000000      1.000000
  0.250000 -0.375000  0.000000      1.000000
  0.375000 -0.375000  0.000000      1.000000
  0.500000 -0.375000  0.000000      1.000000
 -0.375000 -0.375000  0.000000      1.000000
 -0.250000 -0.375000  0.000000      1.000000
 -0.125000 -0.375000  0.000000      1.000000
  0.000000 -0.250000  0.000000      1.000000
  0.125000 -0.250000  0.000000      1.000000
  0.250000 -0.250000  0.000000      1.000000
  0.375000 -0.250000  0.000000      1.000000
  0.500000 -0.250000  0.000000      1.000000
 -0.375000 -0.250000  0.000000      1.000000
 -0.250000 -0.250000  0.000000      1.000000
 -0.125000 -0.250000  0.000000      1.000000
  0.000000 -0.125000  0.000000      1.000000
  0.125000 -0.125000  0.000000      1.000000
  0.250000 -0.125000  0.000000      1.000000
  0.375000 -0.125000  0.000000      1.000000
  0.500000 -0.125000  0.000000      1.000000
 -0.375000 -0.125000  0.000000      1.000000
 -0.250000 -0.125000  0.000000      1.000000
 -0.125000 -0.125000  0.000000      1.000000

 Following cartesian coordinates:
            Coordinates               Weight
  0.000000  0.000000  0.000000      1.000000
  0.034564  0.019594  0.000000      1.000000
  0.069128  0.039189  0.000000      1.000000
  0.103692  0.058783  0.000000      1.000000
  0.138256  0.078377  0.000000      1.000000
 -0.103692 -0.058783  0.000000      1.000000
 -0.069128 -0.039189  0.000000      1.000000
 -0.034564 -0.019594  0.000000      1.000000
  0.000400  0.039681  0.000000      1.000000
  0.034964  0.059276  0.000000      1.000000
  0.069528  0.078870  0.000000      1.000000
  0.104091  0.098464  0.000000      1.000000
  0.138655  0.118059  0.000000      1.000000
 -0.103292 -0.019102  0.000000      1.000000
 -0.068728  0.000493  0.000000      1.000000
 -0.034164  0.020087  0.000000      1.000000
  0.000799  0.079363  0.000000      1.000000
  0.035363  0.098957  0.000000      1.000000
  0.069927  0.118552  0.000000      1.000000
  0.104491  0.138146  0.000000      1.000000
  0.139055  0.157740  0.000000      1.000000
 -0.102893  0.020580  0.000000      1.000000
 -0.068329  0.040174  0.000000      1.000000
 -0.033765  0.059769  0.000000      1.000000
  0.001199  0.119044  0.000000      1.000000
  0.035763  0.138639  0.000000      1.000000
  0.070327  0.158233  0.000000      1.000000
  0.104891  0.177827  0.000000      1.000000
  0.139455  0.197422  0.000000      1.000000
 -0.102493  0.060261  0.000000      1.000000
 -0.067929  0.079856  0.000000      1.000000
 -0.033365  0.099450  0.000000      1.000000
  0.001598  0.158726  0.000000      1.000000
  0.036162  0.178320  0.000000      1.000000
  0.070726  0.197914  0.000000      1.000000
  0.105290  0.217509  0.000000      1.000000
  0.139854  0.237103  0.000000      1.000000
 -0.102093  0.099943  0.000000      1.000000
 -0.067529  0.119537  0.000000      1.000000
 -0.032965  0.139131  0.000000      1.000000
 -0.001199 -0.119044  0.000000      1.000000
  0.033365 -0.099450  0.000000      1.000000
  0.067929 -0.079856  0.000000      1.000000
  0.102493 -0.060261  0.000000      1.000000
  0.137057 -0.040667  0.000000      1.000000
 -0.104891 -0.177827  0.000000      1.000000
 -0.070327 -0.158233  0.000000      1.000000
 -0.035763 -0.138639  0.000000      1.000000
 -0.000799 -0.079363  0.000000      1.000000
  0.033765 -0.059769  0.000000      1.000000
  0.068329 -0.040174  0.000000      1.000000
  0.102893 -0.020580  0.000000      1.000000
  0.137457 -0.000986  0.000000      1.000000
 -0.104491 -0.138146  0.000000      1.000000
 -0.069927 -0.118552  0.000000      1.000000
 -0.035363 -0.098957  0.000000      1.000000
 -0.000400 -0.039681  0.000000      1.000000
  0.034164 -0.020087  0.000000      1.000000
  0.068728 -0.000493  0.000000      1.000000
  0.103292  0.019102  0.000000      1.000000
  0.137856  0.038696  0.000000      1.000000
 -0.104091 -0.098464  0.000000      1.000000
 -0.069528 -0.078870  0.000000      1.000000
 -0.034964 -0.059276  0.000000      1.000000

 SYSTEM =  unknown system
 POSCAR =  ClBrPt2

 Startparameter for this run:
   NWRITE =      2    write-flag & timer
   PREC   = accura    normal or accurate (medium, high low for compatibility)
   ISTART =      0    job   : 0-new  1-cont  2-samecut
   ICHARG =      2    charge: 1-file 2-atom 10-const
   ISPIN  =      1    spin polarized calculation?
   LNONCOLLINEAR =      F non collinear calculations
   LSORBIT =      F    spin-orbit coupling
   INIWAV =      1    electr: 0-lowe 1-rand  2-diag
   LASPH  =      F    aspherical Exc in radial PAW
   METAGGA=      F    non-selfconsistent MetaGGA calc.

 Electronic Relaxation 1
   ENCUT  =  400.0 eV  29.40 Ry    5.42 a.u.   5.93  5.94 32.61*2*pi/ulx,y,z
   ENINI  =  400.0     initial cutoff
   ENAUG  =  503.9 eV  augmentation charge cutoff
   NELM   =     60;   NELMIN=  2; NELMDL= -5     # of ELM steps
   EDIFF  = 0.5E-07   stopping-criterion for ELM
   LREAL  =      F    real-space projection
   NLSPLINE    = F    spline interpolate recip. space projectors
   LCOMPAT=      F    compatible to vasp.4.4
   GGA_COMPAT  = T    GGA compatible to vasp.4.4-vasp.4.6
   LMAXPAW     = -100 max onsite density
   LMAXMIX     =    2 max onsite mixed and CHGCAR
   VOSKOWN=      0    Vosko Wilk Nusair interpolation
   ROPT   =    0.00000   0.00000   0.00000
 Ionic relaxation
   EDIFFG = 0.5E-06   stopping-criterion for IOM
   NSW    =    100    number of steps for IOM
   NBLOCK =      1;   KBLOCK =    100    inner block; outer block
   IBRION =      1    ionic relax: 0-MD 1-quasi-New 2-CG
   NFREE  =      0    steps in history (QN), initial steepest desc. (CG)
   ISIF   =      3    stress and relaxation
   IWAVPR =     11    prediction:  0-non 1-charg 2-wave 3-comb
   ISYM   =     -1    0-nonsym 1-usesym 2-fastsym
   LCORR  =      T    Harris-Foulkes like correction to forces

   POTIM  = 0.5000    time-step for ionic-motion
   TEIN   =    0.0    initial temperature
   TEBEG  =    0.0;   TEEND  =   0.0 temperature during run
   SMASS  =  -3.00    Nose mass-parameter (am)
   estimated Nose-frequenzy (Omega)   =  0.10E-29 period in steps =****** mass=  -0.302E-27a.u.
   SCALEE = 1.0000    scale energy and forces
   NPACO  =    256;   APACO  = 16.0  distance and # of slots for P.C.
   PSTRESS=    0.0 pullay stress

  Mass of Ions in am
   POMASS =  35.45 79.90195.08
  Ionic Valenz
   ZVAL   =   7.00  7.00 10.00
  Atomic Wigner-Seitz radii
  virtual crystal weights
   VCA    =   1.00  1.00  1.00
   NELECT =      34.0000    total number of electrons
   NUPDOWN=      -1.0000    fix difference up-down

 DOS related values:
   EMIN   =  10.00;   EMAX   =-10.00  energy-range for DOS
   EFERMI =   0.00
   ISMEAR =     0;   SIGMA  =   0.10  broadening in eV -4-tet -1-fermi 0-gaus

 Electronic relaxation 2 (details)
   IALGO  =     38    algorithm
   LDIAG  =      T    sub-space diagonalisation (order eigenvalues)
   LSUBROT=      F    optimize rotation matrix (better conditioning)
   TURBO    =      0    0=normal 1=particle mesh
   IRESTART =      0    0=no restart 2=restart with 2 vectors
   NREBOOT  =      0    no. of reboots
   NMIN     =      0    reboot dimension
   EREF     =   0.00    reference energy to select bands
   IMIX   =      4    mixing-type and parameters
[...]
 k-point 39 :  -0.2500 0.5000 0.0000  plane waves:    4188
 k-point 40 :  -0.1250 0.5000 0.0000  plane waves:    4173
 k-point 41 :   0.0000-0.3750 0.0000  plane waves:    4158
 k-point 42 :   0.1250-0.3750 0.0000  plane waves:    4166
 k-point 43 :   0.2500-0.3750 0.0000  plane waves:    4159
 k-point 44 :   0.3750-0.3750 0.0000  plane waves:    4158
 k-point 45 :   0.5000-0.3750 0.0000  plane waves:    4177
 k-point 46 :  -0.3750-0.3750 0.0000  plane waves:    4198
 k-point 47 :  -0.2500-0.3750 0.0000  plane waves:    4196
 k-point 48 :  -0.1250-0.3750 0.0000  plane waves:    4176
 k-point 49 :   0.0000-0.2500 0.0000  plane waves:    4158
 k-point 50 :   0.1250-0.2500 0.0000  plane waves:    4150
 k-point 51 :   0.2500-0.2500 0.0000  plane waves:    4156
 k-point 52 :   0.3750-0.2500 0.0000  plane waves:    4164
 k-point 53 :   0.5000-0.2500 0.0000  plane waves:    4182
 k-point 54 :  -0.3750-0.2500 0.0000  plane waves:    4194
 k-point 55 :  -0.2500-0.2500 0.0000  plane waves:    4182
 k-point 56 :  -0.1250-0.2500 0.0000  plane waves:    4175
 k-point 57 :   0.0000-0.1250 0.0000  plane waves:    4127
 k-point 58 :   0.1250-0.1250 0.0000  plane waves:    4125
 k-point 59 :   0.2500-0.1250 0.0000  plane waves:    4148
 k-point 60 :   0.3750-0.1250 0.0000  plane waves:    4172
 k-point 61 :   0.5000-0.1250 0.0000  plane waves:    4173
 k-point 62 :  -0.3750-0.1250 0.0000  plane waves:    4177
 k-point 63 :  -0.2500-0.1250 0.0000  plane waves:    4173
 k-point 64 :  -0.1250-0.1250 0.0000  plane waves:    4142

 maximum and minimum number of plane-waves per node :      4200     4115

 maximum number of plane-waves:      4200
 maximum index in each direction:
   IXMAX=    6   IYMAX=    6   IZMAX=   32
   IXMIN=   -6   IYMIN=   -6   IZMIN=  -32

 serial   3D FFT for wavefunctions
 parallel 3D FFT for charge:
    minimum data exchange during FFTs selected (reduces bandwidth)

 Broyden mixing: mesh for mixing (old mesh)
   NGX = 11   NGY = 11   NGZ = 65
  (NGX  = 48   NGY  = 48   NGZ  =280)
  gives a total of   7865 points

 initial charge density was supplied:
 charge density of overlapping atoms calculated
 number of electron      34.0000000 magnetization
 keeping initial charge density in first step

 Maximum index for augmentation-charges        10335 (set IRDMAX)

 First call to EWALD:  gamma=   0.290
 Maximum number of real-space cells 5x 5x 1
 Maximum number of reciprocal cells 2x 2x 8

--------------------------------------- Iteration      1(   1)  ---------------------------------------

 eigenvalue-minimisations  :  2816
 total energy-change (2. order) : 0.2451595E+03  (-0.1170383E+04)
 number of electron      34.0000000 magnetization
 augmentation part       34.0000000 magnetization

 DIPCOR: dipole corrections for dipol
 direction  3 min pos   212,
 dipolmoment           0.000000      0.000000     -0.000024 electrons x Angstroem
 Tr[quadrupol]       -79.476890

 energy correction for charged system         0.000000 eV
 dipol+quadrupol energy correction           -0.000000 eV
 added-field ion interaction          0.000276 eV  (added to PSCEN)

 Free energy of the ion-electron system (eV)
  alpha Z        PSCENC =        42.35800134
  Ewald energy   TEWEN  =      6005.17548584
  -Hartree energ DENC   =     -8193.73924136
  -exchange      EXHF   =         0.00000000
  -V(xc)+E(xc)   XCENC  =        37.25830624
  PAW double counting   =      2012.60260865    -1949.97488812
  entropy T*S    EENTRO =        -0.00866349
  eigenvalues    EBANDS =        55.10140122
  atomic energy  EATOM  =      2236.38650011
  Solvation  Ediel_sol  =         0.00000000
  free energy    TOTEN  =       245.15951043 eV

  energy without entropy =      245.16817392  energy(sigma->0) =      245.16384217

[...]

 eigenvalue-minimisations  :  4148
 total energy-change (2. order) :-0.2399217E+03  (-0.2281263E+03)
 number of electron      34.0000000 magnetization
 augmentation part       34.0000000 magnetization

[...]

 Broyden mixing:
  rms(total) = 0.16226E+01    rms(broyden)= 0.16225E+01
  rms(prec ) = 0.16460E+01
  weight for this iteration     100.00

[...]

 eigenvalues of (default mixing * dielectric matrix)
  average eigenvalue GAMMA=   1.8786
  1.8786

[...]

 average (electrostatic) potential at core
  the test charge radii are     0.9406  1.0178  1.2059
  (the norm of the test charge is              1.0000)
       1 -97.7934       2 -67.9234       3 -75.1339       4 -75.0937

 E-fermi :  -1.5055     XC(G=0):  -4.2634     alpha+bet : -3.9314

 k-point     1 :       0.0000    0.0000    0.0000
  band No.  band energies     occupation
      1     -17.6530      2.00000
      2     -17.5039      2.00000
      3      -8.1349      2.00000
      4      -6.9534      2.00000
      5      -6.9521      2.00000
      6      -6.8905      2.00000
      7      -5.9321      2.00000
      8      -5.9148      2.00000
      9      -4.4844      2.00000
     10      -4.4769      2.00000
     11      -3.7848      2.00000
     12      -2.8582      2.00000
     13      -2.8476      2.00000
     14      -2.7448      2.00000
     15      -2.1578      2.00000
     16      -2.1544      2.00000
     17      -2.0241      2.00000
     18      -0.2469      0.00000
     19      -0.2331      0.00000
     20       2.1566      0.00000
     21       3.3029      0.00000
     22       3.9047      0.00000

[...]

 soft charge-density along one line, spin component           1
         0         1         2         3         4         5         6         7         8         9
 total charge-density along one line

------------------------ aborting loop because EDIFF is reached ----------------------------------------

         DFTD3 V3.0 Rev 1
 IVDW         = 11
 DF pbe
 parameters
 VDW_S6       =    1.0000
 VDW_S8       =    0.7220
 VDW_SR       =    1.2170
 rs18     =    1.0000
 alpha6   =   14.0000
 alpha8   =   16.0000
 k1-k3    =   16.0000    1.3333   -4.0000
 VDW_RADIUS   =   50.2022 A
 VDW_CNRADIUS =   21.1671 A
 Edisp (eV)   -1.23836

 E6    (eV) :    -0.3576
 E8    (eV) :    -0.8808
 % E8        : 71.12

  FORCE on cell =-STRESS in cart. coord.  units (eV):
  Direction    XX          YY          ZZ          XY          YZ          ZX
  Alpha Z    42.35773    42.35773    42.35773
  Ewald    7527.34145  7527.34586 -9049.51219     0.70572    -0.04983     1.81626
  Hartree  8001.36152  8001.36460 -7819.56163     0.29608    -0.01809     0.64435
  E(xc)    -141.15143  -141.15142  -141.64883    -0.00376    -0.00004     0.00121
  Local  -16155.91353-16155.92145 16233.78198    -1.05211     0.06542    -2.36647
  n-local   142.95345   142.95334   144.71160     0.07779    -0.00186     0.07462
  augment    78.82880    78.82891    79.72421     0.00424     0.00045    -0.01753
  Kinetic   505.73593   505.73629   510.75351     0.07542     0.00200    -0.07129
  Fock        0.00000     0.00000     0.00000     0.00000     0.00000     0.00000
  vdW        -0.77675    -0.77675    -0.19326     0.00449     0.00005    -0.00161
  Total       0.73716     0.73711     0.41312     0.10787    -0.00192     0.07954
  in kB       5.15404     5.15366     2.88841     0.75418    -0.01339     0.55611

 VOLUME and BASIS-vectors are now :
  energy-cutoff  :      400.00
  volume of cell :      229.15
      direct lattice vectors                 reciprocal lattice vectors
     3.637250369 -0.036629028  0.000000000     0.276511559  0.156754677  0.000000000
    -1.796041249  3.168174471  0.000000000     0.003196904  0.317451511  0.000000000
     0.000000000  0.000000000 20.000000000     0.000000000  0.000000000  0.050000000

[...]

 FORCES acting on ions
    electron-ion (+dipol)            ewald-force                    non-local-force                 convergence-correction
   0.419E+00 -.115E-01 0.993E+03   -.437E+00 0.120E-01 -.998E+03   0.519E-02 -.184E-03 0.508E+01   0.272E-06 -.496E-07 -.351E-03
   -.341E+00 0.935E-02 -.100E+04   0.354E+00 -.969E-02 0.100E+04   0.293E-02 -.585E-04 -.258E+01   0.191E-06 -.159E-07 -.492E-03
   -.131E+00 0.367E-02 -.569E+03   0.123E+00 -.340E-02 0.562E+03   0.177E-01 -.517E-03 0.655E+01   -.523E-06 0.333E-07 -.142E-02
   0.435E-01 -.120E-02 0.575E+03   -.407E-01 0.106E-02 -.569E+03   -.167E-01 0.484E-03 -.640E+01   -.455E-06 -.735E-08 -.128E-02
   -.916E-02 0.282E-03 -.263E+01   0.611E-14 -.584E-14 0.000E+00   0.917E-02 -.276E-03 0.264E+01   -.515E-06 -.396E-07 -.354E-02

 POSITION                                       TOTAL-FORCE (eV/Angst)
     -0.89783      1.58396      3.39123        -0.012550      0.000295     -0.080281
     -0.89783      1.58396      7.69278         0.016099     -0.000389      0.095214
      0.91326      0.51569      6.20213         0.010147     -0.000250      0.057442
      0.92832      2.61560      4.71852        -0.013695      0.000344     -0.072375
    total drift:                                0.000011      0.000006     -0.000454

  FREE ENERGIE OF THE ION-ELECTRON SYSTEM (eV)
  free  energy   TOTEN  =       -17.78245874 eV

  energy  without entropy=      -17.78245874  energy(sigma->0) =      -17.78245874

 Quasi-Newton relaxation of ions (Broydens 2nd method)
  g(Force)  = 0.119E-02   g(Stress)= 0.000E+00

 Reset! Starting new Quasi-Newton update for ions

[...]

         DFTD3 V3.0 Rev 1
 Edisp (eV)   -1.23790

[...]

 d Force = 0.8761919E-03[ 0.558E-03, 0.119E-02]  d Energy = 0.8695076E-03 0.668E-05
 d Force = 0.1202204E+02[ 0.120E+02, 0.120E+02]  d Ewald  = 0.1202204E+02-0.666E-05

[...]

 retain information from N=  1 steps
 eigenvalues of (default step * inverse Hessian matrix)
  average eigenvalue of G=   0.9781
 eigenvalue spectrum of G is  0.9781

[...]

 d Force = 0.5453120E-06[ 0.240E-06, 0.851E-06]  d Energy = 0.5924670E-06-0.472E-07
 d Force =-0.1532364E+00[-0.153E+00,-0.153E+00]  d Ewald  =-0.1532364E+00-0.609E-10

[...]

 eigenvalue-minimisations  :  2858
 total energy-change (2. order) : 0.5037464E-07  (-0.1880465E-07)
 number of electron      33.9999997 magnetization
 augmentation part        3.8445643 magnetization

[...]

 Broyden mixing:
  rms(total) = 0.83245E-04    rms(broyden)= 0.83233E-04
  rms(prec ) = 0.86201E-04
  weight for this iteration     100.00

 eigenvalues of (default mixing * dielectric matrix)
  average eigenvalue GAMMA=   0.5032
  0.6207  0.3858

[...]

--------------------------------------- Iteration      8(   4)  ---------------------------------------

 eigenvalue-minimisations  :  2248
 total energy-change (2. order) :-0.5291895E-08  (-0.1617708E-08)
 number of electron      33.9999997 magnetization
 augmentation part        3.8445643 magnetization

 DIPCOR: dipole corrections for dipol
 direction  3 min pos   227,
 dipolmoment           0.000000      0.000000     -0.035673 electrons x Angstroem
 Tr[quadrupol]       -79.700059

 energy correction for charged system         0.000000 eV
 dipol+quadrupol energy correction           -0.000502 eV
 added-field ion interaction         -0.621583 eV  (added to PSCEN)

 Free energy of the ion-electron system (eV)
  alpha Z        PSCENC =        41.73563952
  Ewald energy   TEWEN  =      5969.25112702
  -Hartree energ DENC   =     -8147.70027717
  -exchange      EXHF   =         0.00000000
  -V(xc)+E(xc)   XCENC  =        36.89353076
  PAW double counting   =      2747.00618721    -2690.36036482
  entropy T*S    EENTRO =        -0.00000000
  eigenvalues    EBANDS =      -209.75952458
  atomic energy  EATOM  =      2236.38650011
  Solvation  Ediel_sol  =         0.00000000
  free energy    TOTEN  =       -16.54718194 eV

  energy without entropy =      -16.54718194  energy(sigma->0) =      -16.54718194

 average (electrostatic) potential at core
  the test charge radii are     0.9406  1.0178  1.2059
  (the norm of the test charge is              1.0000)
       1 -97.7799       2 -67.9057       3 -75.1207       4 -75.0849

 E-fermi :  -1.5111     XC(G=0):  -4.2734     alpha+bet : -3.9415

[...]

 k-point    64 :      -0.1250   -0.1250    0.0000
  band No.  band energies     occupation
      1     -17.4261      2.00000
      2     -17.3053      2.00000
      3      -7.7666      2.00000
      4      -7.0387      2.00000
      5      -6.8949      2.00000
      6      -6.4181      2.00000
      7      -6.2924      2.00000
      8      -5.7091      2.00000
      9      -4.9965      2.00000
     10      -4.8935      2.00000
     11      -4.3172      2.00000
     12      -3.0723      2.00000
     13      -2.7843      2.00000
     14      -2.5219      2.00000
     15      -2.4097      2.00000
     16      -2.3302      2.00000
     17      -1.9878      2.00000
     18      -0.3045      0.00000
     19       0.1561      0.00000
     20       3.6749      0.00000
     21       4.0461      0.00000
     22       4.5347      0.00000

 soft charge-density along one line, spin component           1
         0         1         2         3         4         5         6         7         8         9
 total charge-density along one line

------------------------ aborting loop because EDIFF is reached ----------------------------------------

         DFTD3 V3.0 Rev 1
 Edisp (eV)   -1.23696

 E6    (eV) :    -0.3572
 E8    (eV) :    -0.8798
 % E8        : 71.12

  FORCE on cell =-STRESS in cart. coord.  units (eV):
  Direction    XX          YY          ZZ          XY          YZ          ZX
  Alpha Z    42.35773    42.35773    42.35773
  Ewald    7487.59059  7487.59087 -9005.93068    -0.26286    -0.02587     0.96051
  Hartree  7964.68661  7964.68756 -7781.67261    -0.04235    -0.00979     0.35723
  E(xc)    -141.07767  -141.07767  -141.54939    -0.00468    -0.00007     0.00253
  Local  -16079.50223-16079.50389 16152.91718     0.19634     0.03366    -1.24326
  n-local   142.50574   142.50571   144.19338     0.03128    -0.00005     0.00421
  augment    78.90302    78.90308    79.71589     0.01885     0.00016    -0.00661
  Kinetic   505.71868   505.71923   510.13106     0.12191     0.00180    -0.06964
  Fock        0.00000     0.00000     0.00000     0.00000     0.00000     0.00000
  vdW        -0.77797    -0.77795    -0.22433     0.00537     0.00007    -0.00220
  Total       0.40449     0.40466    -0.06179     0.06385    -0.00009     0.00279
  in kB       2.82809     2.82926    -0.43199     0.44645    -0.00063     0.01948

 VOLUME and BASIS-vectors are now :
  energy-cutoff  :      400.00
  volume of cell :      229.15
      direct lattice vectors                 reciprocal lattice vectors
     3.637250369 -0.036629028  0.000000000     0.276511559  0.156754677  0.000000000
    -1.796041249  3.168174471  0.000000000     0.003196904  0.317451511  0.000000000
     0.000000000  0.000000000 20.000000000     0.000000000  0.000000000  0.050000000

  length of vectors
     3.637434801  3.641853051 20.000000000     0.317853223  0.317467607  0.050000000

 FORCES acting on ions
    electron-ion (+dipol)            ewald-force                    non-local-force                 convergence-correction
   0.263E+00 -.729E-02 0.992E+03   -.278E+00 0.771E-02 -.997E+03   0.128E-01 -.357E-03 0.512E+01   0.735E-03 -.317E-04 -.858E-04
   -.154E+00 0.386E-02 -.100E+04   0.157E+00 -.392E-02 0.100E+04   -.179E-02 0.224E-04 -.262E+01   -.284E-03 0.985E-05 -.108E-04
   -.986E-01 0.307E-02 -.568E+03   0.795E-01 -.256E-02 0.561E+03   0.192E-01 -.533E-03 0.653E+01   0.523E-03 -.461E-05 -.124E-03
   -.321E-01 0.102E-02 0.574E+03   0.410E-01 -.124E-02 -.567E+03   -.890E-02 0.228E-03 -.638E+01   -.499E-03 0.135E-04 -.870E-05
   -.217E-01 0.653E-03 -.266E+01   0.603E-14 -.584E-14 0.000E+00   0.213E-01 -.640E-03 0.266E+01   0.474E-03 -.129E-04 -.230E-03

 POSITION                                       TOTAL-FORCE (eV/Angst)
     -0.90096      1.58405      3.37628        -0.000555      0.000019      0.000238
     -0.89413      1.58386      7.70877         0.000465     -0.000016      0.000180
      0.91410      0.51567      6.20601         0.000227     -0.000015     -0.000221
      0.92692      2.61564      4.71361        -0.000137      0.000013     -0.000197
    total drift:                                0.000045      0.000000     -0.000024

  FREE ENERGIE OF THE ION-ELECTRON SYSTEM (eV)
  free  energy   TOTEN  =       -17.78414644 eV

  energy  without entropy=      -17.78414644  energy(sigma->0) =      -17.78414644

 d Force = 0.1028412E-06[ 0.809E-07, 0.125E-06]  d Energy = 0.1669241E-06-0.641E-07
 d Force = 0.4149161E-02[ 0.415E-02, 0.415E-02]  d Ewald  = 0.4149161E-02 0.437E-10

 Quasi-Newton relaxation of ions (Broydens 2nd method)
  g(Force)  = 0.373E-07   g(Stress)= 0.000E+00

 retain information from N=  2 steps
 eigenvalues of (default step * inverse Hessian matrix)
  average eigenvalue of G=   3.5507
 eigenvalue spectrum of G is  3.5507  3.5507

 reached required accuracy - stopping structural energy minimisation
 writing wavefunctions