 vasp.5.4.4.16052018 (build Dec 07 2020 11:33:42) complex

 executed on             LinuxIFC date 2020.12.13  00:52:08

 INCAR:
 POTCAR:    PAW_PBE Cl 06Sep2000
 POTCAR:    PAW_PBE Br 06Sep2000
 POTCAR:    PAW_PBE Pt 04Feb2005

 POTCAR:    PAW_PBE Cl 06Sep2000
   VRHFIN =Cl: s2p5

   TITEL  = PAW_PBE Cl 06Sep2000
   POMASS =   35.453; ZVAL   =    7.000    mass and valenz
   ENMAX  =  262.472; ENMIN  =  196.854 eV

 POTCAR:    PAW_PBE Br 06Sep2000
   VRHFIN =Br: s2p5

   TITEL  = PAW_PBE Br 06Sep2000
   POMASS =   79.904; ZVAL   =    7.000    mass and valenz
   ENMAX  =  216.285; ENMIN  =  162.214 eV

 POTCAR:    PAW_PBE Pt 04Feb2005
   VRHFIN =Pt: s1d9

   TITEL  = PAW_PBE Pt 04Feb2005
   POMASS =  195.080; ZVAL   =   10.000    mass and valenz
   ENMAX  =  230.283; ENMIN  =  172.712 eV

  PAW_PBE Cl 06Sep2000                  :
  PAW_PBE Br 06Sep2000                  :
  PAW_PBE Pt 04Feb2005                  :

 POSCAR: ClBrPt2
  positions in direct lattice
  velocities in cartesian coordinates
 exchange correlation table for  LEXCH =        8
   RHO(1)=    0.500       N(1)  =     2000
   RHO(2)=  100.500       N(2)  =     4000

 ion  position               nearest neighbor table
   1  0.000  0.500  0.168-   4 2.46   4 2.49   4 2.49
   2  0.000  0.500  0.386-   3 2.55   3 2.57   3 2.58
   3  0.333  0.167  0.310-   4 2.54   2 2.55   4 2.57   4 2.57   2 2.57   2 2.58
   4  0.667  0.833  0.236-   1 2.46   1 2.49   1 2.49   3 2.54   3 2.57   3 2.57

IMPORTANT INFORMATION: All symmetrisations will be switched off!
NOSYMM: (Re-)initialisation of all symmetry stuff for point group C_1.

 KPOINTS: Automatic mesh

Automatic generation of k-mesh.
Space group operators:
 irot       det(A)        alpha          n_x          n_y          n_z        tau_x        tau_y        tau_z
    1     1.000000     0.000000     1.000000     0.000000     0.000000     0.000000     0.000000     0.000000

 Subroutine IBZKPT returns following result:

 Found     16 irreducible k-points:

 Following reciprocal coordinates:
            Coordinates               Weight
  0.000000  0.000000  0.000000      1.000000
  0.250000  0.000000  0.000000      1.000000
  0.500000  0.000000  0.000000      1.000000
 -0.250000 -0.000000  0.000000      1.000000
  0.000000  0.250000  0.000000      1.000000
  0.250000  0.250000  0.000000      1.000000
  0.500000  0.250000  0.000000      1.000000
 -0.250000  0.250000  0.000000      1.000000
  0.000000  0.500000  0.000000      1.000000
  0.250000  0.500000  0.000000      1.000000
  0.500000  0.500000  0.000000      1.000000
 -0.250000  0.500000  0.000000      1.000000
 -0.000000 -0.250000  0.000000      1.000000
  0.250000 -0.250000  0.000000      1.000000
  0.500000 -0.250000  0.000000      1.000000
 -0.250000 -0.250000  0.000000      1.000000

 Following cartesian coordinates:
            Coordinates               Weight
  0.000000  0.000000  0.000000      1.000000
  0.069138  0.039794  0.000000      1.000000
  0.138276  0.079588  0.000000      1.000000
 -0.069138 -0.039794  0.000000      1.000000
  0.000812  0.080994  0.000000      1.000000
  0.069949  0.120788  0.000000      1.000000
  0.139087  0.160583  0.000000      1.000000
 -0.068326  0.041200  0.000000      1.000000
  0.001623  0.161988  0.000000      1.000000
  0.070761  0.201783  0.000000      1.000000
  0.139899  0.241577  0.000000      1.000000
 -0.067515  0.122194  0.000000      1.000000
 -0.000812 -0.080994  0.000000      1.000000
  0.068326 -0.041200  0.000000      1.000000
  0.137464 -0.001406  0.000000      1.000000
 -0.069949 -0.120788  0.000000      1.000000

 SYSTEM =  unknown system
 POSCAR =  ClBrPt2

 Startparameter for this run:
   NWRITE =      2    write-flag & timer
   PREC   = accura    normal or accurate (medium, high low for compatibility)
   ISTART =      0    job   : 0-new  1-cont  2-samecut
   ICHARG =      2    charge: 1-file 2-atom 10-const
   ISPIN  =      1    spin polarized calculation?
   LNONCOLLINEAR =      F non collinear calculations
   LSORBIT =      F    spin-orbit coupling
   INIWAV =      1    electr: 0-lowe 1-rand  2-diag
   LASPH  =      F    aspherical Exc in radial PAW
   METAGGA=      F    non-selfconsistent MetaGGA calc.

 Electronic Relaxation 1
   ENCUT  =  300.0 eV  22.05 Ry    4.70 a.u.   5.14  5.06 28.25*2*pi/ulx,y,z
   ENINI  =  300.0     initial cutoff
   ENAUG  =  503.9 eV  augmentation charge cutoff
   NELM   =     60;   NELMIN=  2; NELMDL= -5     # of ELM steps
   EDIFF  = 0.5E-04   stopping-criterion for ELM
   LREAL  =      F    real-space projection
   NLSPLINE    = F    spline interpolate recip. space projectors
   LCOMPAT=      F    compatible to vasp.4.4
   GGA_COMPAT  = T    GGA compatible to vasp.4.4-vasp.4.6
   LMAXPAW     = -100 max onsite density
   LMAXMIX     =    2 max onsite mixed and CHGCAR
   VOSKOWN=      0    Vosko Wilk Nusair interpolation
   ROPT   =    0.00000   0.00000   0.00000
 Ionic relaxation
   EDIFFG = 0.5E-03   stopping-criterion for IOM
   NSW    =    100    number of steps for IOM
   NBLOCK =      1;   KBLOCK =    100    inner block; outer block
   IBRION =      1    ionic relax: 0-MD 1-quasi-New 2-CG
   NFREE  =      0    steps in history (QN), initial steepest desc. (CG)
   ISIF   =      3    stress and relaxation
   IWAVPR =     11    prediction:  0-non 1-charg 2-wave 3-comb
   ISYM   =     -1    0-nonsym 1-usesym 2-fastsym
   LCORR  =      T    Harris-Foulkes like correction to forces

   POTIM  = 0.5000    time-step for ionic-motion
   TEIN   =    0.0    initial temperature
   TEBEG  =    0.0;   TEEND  =   0.0 temperature during run
   SMASS  =  -3.00    Nose mass-parameter (am)
   estimated Nose-frequenzy (Omega)   =  0.10E-29 period in steps =****** mass=  -0.302E-27a.u.
   SCALEE = 1.0000    scale energy and forces
   NPACO  =    256;   APACO  = 16.0  distance and # of slots for P.C.
   PSTRESS=    0.0 pullay stress

  Mass of Ions in am
   POMASS =  35.45 79.90195.08
  Ionic Valenz
   ZVAL   =   7.00  7.00 10.00
  Atomic Wigner-Seitz radii
  virtual crystal weights
   VCA    =   1.00  1.00  1.00
   NELECT =      34.0000    total number of electrons
   NUPDOWN=      -1.0000    fix difference up-down

 DOS related values:
   EMIN   =  10.00;   EMAX   =-10.00  energy-range for DOS
   EFERMI =   0.00
   ISMEAR =     0;   SIGMA  =   0.10  broadening in eV -4-tet -1-fermi 0-gaus

 Electronic relaxation 2 (details)
   IALGO  =     38    algorithm
   LDIAG  =      T    sub-space diagonalisation (order eigenvalues)
   LSUBROT=      F    optimize rotation matrix (better conditioning)
   TURBO    =      0    0=normal 1=particle mesh
   IRESTART =      0    0=no restart 2=restart with 2 vectors
   NREBOOT  =      0    no. of reboots
   NMIN     =      0    reboot dimension
   EREF     =   0.00    reference energy to select bands
   IMIX   =      4    mixing-type and parameters
     AMIX     =   0.40;   BMIX     =  1.00
     AMIX_MAG =   1.60;   BMIX_MAG =  1.00
     AMIN     =   0.10
     WC   =   100.;   INIMIX=   1;  MIXPRE=   1;  MAXMIX= -45

 Intra band minimization:
   WEIMIN = 0.0010     energy-eigenvalue tresh-hold
   EBREAK =  0.57E-06  absolut break condition
   DEPER  =   0.30     relativ break condition

   TIME   =   0.40     timestep for ELM

  volume/ion in A,a.u.               =      56.13       378.78
  Fermi-wavevector in a.u.,A,eV,Ry     =   0.872603  1.648981 10.359972  0.761436
  Thomas-Fermi vector in A             =   1.991876

 Write flags
   LWAVE        =      T    write WAVECAR
   LDOWNSAMPLE  =      F    k-point downsampling of WAVECAR
   LCHARG       =      T    write CHGCAR
   LVTOT        =      F    write LOCPOT, total local potential
   LVHAR        =      F    write LOCPOT, Hartree potential only
   LELF         =      F    write electronic localiz. function (ELF)
   LORBIT       =      0    0 simple, 1 ext, 2 COOP (PROOUT), +10 PAW based schemes

 Dipole corrections
   LMONO  =      F    monopole corrections only (constant potential shift)
   LDIPOL =      T    correct potential (dipole corrections)
   IDIPOL =      3    1-x, 2-y, 3-z, 4-all directions
   EPSILON=  1.0000000 bulk dielectric constant

 Exchange correlation treatment:
   GGA     =    --    GGA type
   VOSKOWN=      0    Vosko Wilk Nusair interpolation
   LHFCALC =     F    Hartree Fock is set to
   LHFONE  =     F    Hartree Fock one center treatment
   AEXX    =    0.0000 exact exchange contribution

 Linear response parameters
   LEPSILON=     F    determine dielectric tensor
   LRPA    =     F    only Hartree local field effects (RPA)
   LNABLA  =     F    use nabla operator in PAW spheres
   LVEL    =     F    velocity operator in full k-point grid
   LINTERFAST=   F  fast interpolation
   KINTER  =     0    interpolate to denser k-point grid
   CSHIFT  =0.1000    complex shift for real part using Kramers Kronig
   OMEGAMAX=  -1.0    maximum frequency
   DEG_THRESHOLD= 0.2000000E-02 threshold for treating states as degnerate
   RTIME   =   -0.100 relaxation time in fs
  (WPLASMAI=    0.000 imaginary part of plasma frequency in eV, 0.658/RTIME)
   DFIELD  = 0.0000000 0.0000000 0.0000000 field for delta impulse in time

 Orbital magnetization related:
   ORBITALMAG=     F  switch on orbital magnetization
   LCHIMAG   =     F  perturbation theory with respect to B field
   DQ        =  0.001000  dq finite difference perturbation B field
   LLRAUG    =     F  two centre corrections for induced B field

 quasi-Newton-method for relaxation of ions
 charge density and potential will be updated during run
 non-spin polarized calculation
 Variant of blocked Davidson
 Davidson routine will perform the subspace rotation
 perform sub-space diagonalisation
    after iterative eigenvector-optimisation
 modified Broyden-mixing scheme, WC =      100.0
 initial mixing is a Kerker type mixing with AMIX =  0.4000 and BMIX =      1.0000
 Hartree-type preconditioning will be used
 using additional bands            5
 reciprocal scheme for non local part
 use partial core corrections
 calculate Harris-corrections to forces
   (improved forces if not selfconsistent)
 use gradient corrections
 use of overlap-Matrix (Vanderbilt PP)
 Gauss-broadening in eV      SIGMA  =   0.10

  energy-cutoff  :      300.00
  volume of cell :      224.52
      direct lattice vectors                 reciprocal lattice vectors
     3.636944978 -0.036443352  0.000000000     0.276551047  0.159176935  0.000000000
    -1.786911496  3.104546809  0.000000000     0.003246350  0.323976736  0.000000000
     0.000000000  0.000000000 20.000000000     0.000000000  0.000000000  0.050000000

  length of vectors
     3.637127560  3.582075318 20.000000000     0.319088981  0.323993000  0.050000000

 k-points in units of 2pi/SCALE and weight: Automatic mesh
   0.00000000  0.00000000  0.00000000       0.062
   0.06913776  0.03979423  0.00000000       0.062
   0.13827552  0.07958847  0.00000000       0.062
  -0.06913776 -0.03979423  0.00000000       0.062
   0.00081159  0.08099418  0.00000000       0.062
   0.06994935  0.12078842  0.00000000       0.062
   0.13908711  0.16058265  0.00000000       0.062
  -0.06832617  0.04119995  0.00000000       0.062
   0.00162318  0.16198837  0.00000000       0.062
[...]

 position of ions in fractional coordinates (direct lattice)
   0.00003284  0.49996180  0.16834626
   0.00003221  0.49995994  0.38572384
   0.33336542  0.16662742  0.31048675
   0.66669892  0.83329448  0.23567645

 position of ions in cartesian coordinates  (Angst):
  -0.89326804  1.55215361  3.36692514
  -0.89326702  1.55214786  7.71447671
   0.91468324  0.50515367  6.20973506
   0.93572381  2.56270498  4.71352901

 k-point  1 :   0.0000 0.0000 0.0000  plane waves:    2625
 k-point  2 :   0.2500 0.0000 0.0000  plane waves:    2638
 k-point  3 :   0.5000 0.0000 0.0000  plane waves:    2646
 k-point  4 :  -0.2500-0.0000 0.0000  plane waves:    2638
 k-point  5 :   0.0000 0.2500 0.0000  plane waves:    2647
 k-point  6 :   0.2500 0.2500 0.0000  plane waves:    2664
 k-point  7 :   0.5000 0.2500 0.0000  plane waves:    2663
 k-point  8 :  -0.2500 0.2500 0.0000  plane waves:    2637
 k-point  9 :   0.0000 0.5000 0.0000  plane waves:    2646
 k-point 10 :   0.2500 0.5000 0.0000  plane waves:    2664
 k-point 11 :   0.5000 0.5000 0.0000  plane waves:    2646
 k-point 12 :  -0.2500 0.5000 0.0000  plane waves:    2664
 k-point 13 :  -0.0000-0.2500 0.0000  plane waves:    2647
 k-point 14 :   0.2500-0.2500 0.0000  plane waves:    2637
 k-point 15 :   0.5000-0.2500 0.0000  plane waves:    2663
 k-point 16 :  -0.2500-0.2500 0.0000  plane waves:    2664

 maximum and minimum number of plane-waves per node :      2664     2625

 maximum number of plane-waves:      2664
 maximum index in each direction:
   IXMAX=    5   IYMAX=    5   IZMAX=   28
   IXMIN=   -5   IYMIN=   -5   IZMIN=  -28

 serial   3D FFT for wavefunctions
 parallel 3D FFT for charge:
    minimum data exchange during FFTs selected (reduces bandwidth)

 Broyden mixing: mesh for mixing (old mesh)
   NGX = 11   NGY = 11   NGZ = 57
  (NGX  = 48   NGY  = 40   NGZ  =240)
  gives a total of   6897 points

 initial charge density was supplied:
 charge density of overlapping atoms calculated
 number of electron      34.0000000 magnetization
 keeping initial charge density in first step

 Maximum index for augmentation-charges         7537 (set IRDMAX)

 First call to EWALD:  gamma=   0.292
 Maximum number of real-space cells 5x 5x 1
 Maximum number of reciprocal cells 2x 2x 8

--------------------------------------- Iteration      1(   1)  ---------------------------------------

 eigenvalue-minimisations  :   712
 total energy-change (2. order) : 0.2227735E+03  (-0.1014073E+04)
 number of electron      34.0000000 magnetization
 augmentation part       34.0000000 magnetization

 DIPCOR: dipole corrections for dipol
 direction  3 min pos   183,
 dipolmoment           0.000000      0.000000     -0.000023 electrons x Angstroem
 Tr[quadrupol]       -77.720843

 energy correction for charged system         0.000000 eV
 dipol+quadrupol energy correction           -0.000000 eV
 added-field ion interaction          0.000204 eV  (added to PSCEN)

 Free energy of the ion-electron system (eV)
  alpha Z        PSCENC =        43.23222350
  Ewald energy   TEWEN  =      6106.36921915
  -Hartree energ DENC   =     -8297.63201933
  -exchange      EXHF   =         0.00000000
  -V(xc)+E(xc)   XCENC  =        37.39148293
  PAW double counting   =      2012.60260865    -1949.97488812
  entropy T*S    EENTRO =        -0.01946845
  eigenvalues    EBANDS =        34.49980677
  atomic energy  EATOM  =      2236.30457717
  Solvation  Ediel_sol  =         0.00000000
  free energy    TOTEN  =       222.77354225 eV

  energy without entropy =      222.79301070  energy(sigma->0) =      222.78327648

[...]

 eigenvalue-minimisations  :  1058
 total energy-change (2. order) :-0.2201205E+03  (-0.2103939E+03)
 number of electron      34.0000000 magnetization
 augmentation part       34.0000000 magnetization

[...]

 Broyden mixing:
  rms(total) = 0.16619E+01    rms(broyden)= 0.16617E+01
  rms(prec ) = 0.16841E+01
  weight for this iteration     100.00

[...]

 eigenvalues of (default mixing * dielectric matrix)
  average eigenvalue GAMMA=   1.9174
  1.9174

[...]

 average (electrostatic) potential at core
  the test charge radii are     0.9406  1.0178  1.2059
  (the norm of the test charge is              1.0000)
       1 -97.7255       2 -67.8630       3 -75.0228       4 -74.9764

 E-fermi :  -1.3480     XC(G=0):  -4.3878     alpha+bet : -4.0347

 k-point     1 :       0.0000    0.0000    0.0000
  band No.  band energies     occupation
      1     -17.6274      2.00000
      2     -17.4836      2.00000
      3      -8.1395      2.00000
      4      -6.9079      2.00000
      5      -6.8760      2.00000
      6      -6.8684      2.00000
      7      -5.8793      2.00000
      8      -5.7519      2.00000
      9      -4.4142      2.00000
     10      -4.3660      2.00000
     11      -3.7782      2.00000
     12      -2.7879      2.00000
     13      -2.7181      2.00000
     14      -2.6536      2.00000
     15      -2.0541      2.00000
     16      -2.0380      2.00000
     17      -1.9923      2.00000
     18      -0.1545      0.00000
     19      -0.0591      0.00000
     20       2.3094      0.00000
     21       3.2869      0.00000
     22       3.8840      0.00000

[...]

 soft charge-density along one line, spin component           1
         0         1         2         3         4         5         6         7         8         9
 total charge-density along one line

------------------------ aborting loop because EDIFF is reached ----------------------------------------

         DFTD3 V3.0 Rev 1
 IVDW         = 11
 DF pbe
 parameters
 VDW_S6       =    1.0000
 VDW_S8       =    0.7220
 VDW_SR       =    1.2170
 rs18     =    1.0000
 alpha6   =   14.0000
 alpha8   =   16.0000
 k1-k3    =   16.0000    1.3333   -4.0000
 VDW_RADIUS   =   50.2022 A
 VDW_CNRADIUS =   21.1671 A
 Edisp (eV)   -1.25150

 E6    (eV) :    -0.3648
 E8    (eV) :    -0.8867
 % E8        : 70.85

  FORCE on cell =-STRESS in cart. coord.  units (eV):
  Direction    XX          YY          ZZ          XY          YZ          ZX
  Alpha Z    43.23202    43.23202    43.23202
  Ewald    7627.83064  7637.63590 -9159.09735     0.04744   -12.68927    -0.25762
  Hartree  8106.30767  8110.36784 -7928.49673     0.01878    -4.43447    -0.09061
  E(xc)    -141.27824  -141.33333  -141.73928    -0.00030    -0.00710    -0.00016
  Local  -16362.69742-16377.30808 16452.90381    -0.06973    16.42656     0.33413
  n-local   142.83505   143.95855   144.73412     0.00592    -0.52753    -0.01044
  augment    78.70512    78.76970    79.49152     0.00019     0.12053     0.00245
  Kinetic   506.44450   507.53335   509.98893     0.00539     0.48079     0.00980
  Fock        0.00000     0.00000     0.00000     0.00000     0.00000     0.00000
  vdW        -0.76590    -0.71555    -0.23563     0.00027     0.01044     0.00022
  Total       0.61344     2.14041     0.78140     0.00796    -0.62004    -0.01224
  in kB       4.37753    15.27404     5.57608     0.05680    -4.42462    -0.08731

 VOLUME and BASIS-vectors are now :
  energy-cutoff  :      300.00
  volume of cell :      224.52
      direct lattice vectors                 reciprocal lattice vectors
     3.636944978 -0.036443352  0.000000000     0.276551047  0.159176935  0.000000000
    -1.786911496  3.104546809  0.000000000     0.003246350  0.323976736  0.000000000
     0.000000000  0.000000000 20.000000000     0.000000000  0.000000000  0.050000000

[...]

 FORCES acting on ions
    electron-ion (+dipol)            ewald-force                    non-local-force                 convergence-correction
   -.578E-01 -.287E+01 0.101E+04   0.609E-01 0.301E+01 -.102E+04   -.929E-03 -.382E-01 0.557E+01   -.204E-03 -.124E-02 -.985E-01
   0.477E-01 0.234E+01 -.102E+04   -.497E-01 -.244E+01 0.103E+04   -.504E-03 -.269E-01 -.264E+01   -.122E-05 0.115E-02 0.107E+00
   0.185E-01 0.912E+00 -.580E+03   -.176E-01 -.876E+00 0.574E+03   -.230E-02 -.109E+00 0.672E+01   -.440E-04 -.748E-03 0.152E+00
   -.670E-02 -.312E+00 0.586E+03   0.641E-02 0.310E+00 -.579E+03   0.215E-02 0.101E+00 -.659E+01   0.127E-03 0.186E-03 -.853E-01
   0.170E-02 0.741E-01 -.313E+01   0.190E-13 -.794E-14 -.114E-12   -.159E-02 -.735E-01 0.305E+01   -.122E-03 -.653E-03 0.758E-01

 POSITION                                       TOTAL-FORCE (eV/Angst)
     -0.89327      1.55215      3.36693         0.001962      0.100549     -0.170919
     -0.89327      1.55215      7.71448        -0.002445     -0.124297      0.197615
      0.91468      0.50515      6.20974        -0.001479     -0.073598      0.102577
      0.93572      2.56270      4.71353         0.001961      0.097346     -0.129273
    total drift:                               -0.000011     -0.000086     -0.003843

  FREE ENERGIE OF THE ION-ELECTRON SYSTEM (eV)
  free  energy   TOTEN  =       -17.77329464 eV

  energy  without entropy=      -17.77329464  energy(sigma->0) =      -17.77329464

 Quasi-Newton relaxation of ions (Broydens 2nd method)
  g(Force)  = 0.656E-02   g(Stress)= 0.454E-02

 Reset! Starting new Quasi-Newton update for ions

[...]

         DFTD3 V3.0 Rev 1
 Edisp (eV)   -1.24456

[...]

 d Force = 0.4443357E-02[ 0.233E-02, 0.656E-02]  d Energy = 0.5703135E-02-0.126E-02
 d Force = 0.2456171E+02[ 0.245E+02, 0.247E+02]  d Ewald  = 0.8046854E+02-0.559E+02

[...]

 retain information from N=  1 steps
 eigenvalues of (default step * inverse Hessian matrix)
  average eigenvalue of G=   0.6462
 eigenvalue spectrum of G is  0.6462

[...]

 d Force = 0.1649854E-02[ 0.123E-02, 0.207E-02]  d Energy = 0.2039365E-02-0.390E-03
 d Force = 0.2835886E+01[ 0.284E+01, 0.283E+01]  d Ewald  =-0.1740838E+02 0.202E+02

[...]

 d Force = 0.1452719E-02[ 0.595E-03, 0.231E-02]  d Energy = 0.1560294E-02-0.108E-03
 d Force = 0.1429582E+02[ 0.143E+02, 0.143E+02]  d Ewald  = 0.1454018E+02-0.244E+00

[...]

 eigenvalue-minimisations  :   842
 total energy-change (2. order) :-0.7022395E-04  (-0.8504594E-04)
 number of electron      34.0000001 magnetization
 augmentation part        3.8468944 magnetization

[...]

 Broyden mixing:
  rms(total) = 0.69912E-02    rms(broyden)= 0.69896E-02
  rms(prec ) = 0.80613E-02
  weight for this iteration     100.00

 eigenvalues of (default mixing * dielectric matrix)
  average eigenvalue GAMMA=   0.6110
  0.6110

[...]

--------------------------------------- Iteration      6(   3)  ---------------------------------------

 eigenvalue-minimisations  :   684
 total energy-change (2. order) : 0.4511335E-04  (-0.1903551E-04)
 number of electron      34.0000001 magnetization
 augmentation part        3.8468944 magnetization

 DIPCOR: dipole corrections for dipol
 direction  3 min pos   186,
 dipolmoment           0.000000      0.000000     -0.036279 electrons x Angstroem
 Tr[quadrupol]       -76.343599

 energy correction for charged system         0.000000 eV
 dipol+quadrupol energy correction           -0.000528 eV
 added-field ion interaction          0.076624 eV  (added to PSCEN)

 Free energy of the ion-electron system (eV)
  alpha Z        PSCENC =        43.10923937
  Ewald energy   TEWEN  =      6019.07436854
  -Hartree energ DENC   =     -8200.43628577
  -exchange      EXHF   =         0.00000000
  -V(xc)+E(xc)   XCENC  =        36.93982606
  PAW double counting   =      2758.71996224    -2702.09773813
  entropy T*S    EENTRO =        -0.00000000
  eigenvalues    EBANDS =      -208.15274422
  atomic energy  EATOM  =      2236.30457717
  Solvation  Ediel_sol  =         0.00000000
  free energy    TOTEN  =       -16.53879475 eV

  energy without entropy =      -16.53879475  energy(sigma->0) =      -16.53879475

 average (electrostatic) potential at core
  the test charge radii are     0.9406  1.0178  1.2059
  (the norm of the test charge is              1.0000)
       1 -97.7368       2 -67.8860       3 -75.0533       4 -75.0016

 E-fermi :  -1.4609     XC(G=0):  -4.3518     alpha+bet : -3.9835

[...]

 k-point    16 :      -0.2500   -0.2500    0.0000
  band No.  band energies     occupation
      1     -17.1034      2.00000
      2     -16.9362      2.00000
      3      -7.5228      2.00000
      4      -7.0808      2.00000
      5      -6.9552      2.00000
      6      -6.2931      2.00000
      7      -6.1807      2.00000
      8      -5.8513      2.00000
      9      -5.3588      2.00000
     10      -5.1112      2.00000
     11      -3.7725      2.00000
     12      -3.3732      2.00000
     13      -3.0786      2.00000
     14      -2.9078      2.00000
     15      -2.8140      2.00000
     16      -2.2676      2.00000
     17      -1.9568      2.00000
     18      -0.1890      0.00000
     19       1.3933      0.00000
     20       3.1634      0.00000
     21       4.6373      0.00000
     22       5.5700      0.00000

 soft charge-density along one line, spin component           1
         0         1         2         3         4         5         6         7         8         9
 total charge-density along one line

------------------------ aborting loop because EDIFF is reached ----------------------------------------

         DFTD3 V3.0 Rev 1
 Edisp (eV)   -1.24532

 E6    (eV) :    -0.3624
 E8    (eV) :    -0.8829
 % E8        : 70.90

  FORCE on cell =-STRESS in cart. coord.  units (eV):
  Direction    XX          YY          ZZ          XY          YZ          ZX
  Alpha Z    43.03314    43.03314    43.03314
  Ewald    7539.16828  7536.73117 -9056.82512    -0.01837    -9.12107    -0.20739
  Hartree  8018.13309  8018.12801 -7835.83084    -0.00393    -3.33625    -0.07609
  E(xc)    -141.09693  -141.17497  -141.53357    -0.00034    -0.02268    -0.00049
  Local  -16184.93772-16184.30769 16259.06220     0.01458    11.74078     0.26750
  n-local   142.04888   142.68902   143.60603     0.00263    -0.07446    -0.00202
  augment    78.70941    79.02830    79.53266     0.00129     0.06072     0.00145
  Kinetic   505.66366   507.68050   508.99625     0.00830     0.60201     0.01310
  Fock        0.00000     0.00000     0.00000     0.00000     0.00000     0.00000
  vdW        -0.79096    -0.71327    -0.28124     0.00034     0.01694     0.00038
  Total      -0.06916     1.09421    -0.24048     0.00449    -0.13400    -0.00356
  in kB      -0.49128     7.77238    -1.70816     0.03190    -0.95183    -0.02527

 VOLUME and BASIS-vectors are now :
  energy-cutoff  :      300.00
  volume of cell :      225.56
      direct lattice vectors                 reciprocal lattice vectors
     3.653753023 -0.036443352  0.000000000     0.275278853  0.159176935  0.000000000
    -1.795169661  3.104546809  0.000000000     0.003231417  0.323976736  0.000000000
     0.000000000  0.000000000 20.000000000     0.000000000  0.000000000  0.050000000

  length of vectors
     3.653934766  3.586202030 20.000000000     0.317987018  0.323992851  0.050000000

 FORCES acting on ions
    electron-ion (+dipol)            ewald-force                    non-local-force                 convergence-correction
   -.521E-01 -.232E+01 0.101E+04   0.562E-01 0.250E+01 -.101E+04   -.281E-02 -.125E+00 0.568E+01   -.694E-03 -.297E-01 -.358E-01
   0.337E-01 0.149E+01 -.102E+04   -.351E-01 -.155E+01 0.102E+04   0.606E-03 0.192E-01 -.271E+01   0.339E-03 0.145E-01 -.381E-01
   0.195E-01 0.842E+00 -.576E+03   -.163E-01 -.685E+00 0.570E+03   -.317E-02 -.145E+00 0.665E+01   -.240E-03 -.174E-01 -.208E+00
   0.319E-02 0.178E+00 0.581E+03   -.488E-02 -.266E+00 -.575E+03   0.155E-02 0.663E-01 -.650E+01   0.379E-03 0.276E-01 -.292E+00
   0.421E-02 0.187E+00 -.255E+01   -.520E-14 -.311E-14 0.000E+00   -.382E-02 -.185E+00 0.311E+01   -.215E-03 -.495E-02 -.573E+00

 POSITION                                       TOTAL-FORCE (eV/Angst)
     -0.89689      1.57611      3.34533         0.000474      0.022795     -0.003522
     -0.89799      1.52394      7.73711        -0.000440     -0.023459      0.020014
      0.91877      0.49849      6.21543        -0.000184     -0.003044     -0.030312
      0.94028      2.57362      4.70680         0.000150      0.003708      0.013820
    total drift:                                0.000174     -0.002846     -0.006830

  FREE ENERGIE OF THE ION-ELECTRON SYSTEM (eV)
  free  energy   TOTEN  =       -17.78411664 eV

  energy  without entropy=      -17.78411664  energy(sigma->0) =      -17.78411664

 d Force = 0.8702746E-04[-0.178E-04, 0.192E-03]  d Energy = 0.8000408E-04 0.702E-05
 d Force = 0.1985792E+01[ 0.199E+01, 0.199E+01]  d Ewald  = 0.1881027E+00 0.180E+01

 Quasi-Newton relaxation of ions (Broydens 2nd method)
  g(Force)  = 0.126E-03   g(Stress)= 0.577E-04

 retain information from N=  2 steps
 eigenvalues of (default step * inverse Hessian matrix)
  average eigenvalue of G=   2.1188
 eigenvalue spectrum of G is  3.6982  0.5395

 reached required accuracy - stopping structural energy minimisation
 writing wavefunctions