 vasp.5.4.4.16052018 (build Dec 07 2020 11:33:42) complex

 executed on             LinuxIFC date 2020.12.13  00:46:28

 INCAR:
 POTCAR:    PAW_PBE Cl 06Sep2000
 POTCAR:    PAW_PBE Br 06Sep2000
 POTCAR:    PAW_PBE Pt 04Feb2005

 POTCAR:    PAW_PBE Cl 06Sep2000
   VRHFIN =Cl: s2p5

   TITEL  = PAW_PBE Cl 06Sep2000
   POMASS =   35.453; ZVAL   =    7.000    mass and valenz
   ENMAX  =  262.472; ENMIN  =  196.854 eV

 POTCAR:    PAW_PBE Br 06Sep2000
   VRHFIN =Br: s2p5

   TITEL  = PAW_PBE Br 06Sep2000
   POMASS =   79.904; ZVAL   =    7.000    mass and valenz
   ENMAX  =  216.285; ENMIN  =  162.214 eV

 POTCAR:    PAW_PBE Pt 04Feb2005
   VRHFIN =Pt: s1d9

   TITEL  = PAW_PBE Pt 04Feb2005
   POMASS =  195.080; ZVAL   =   10.000    mass and valenz
   ENMAX  =  230.283; ENMIN  =  172.712 eV

  PAW_PBE Cl 06Sep2000                  :
  PAW_PBE Br 06Sep2000                  :
  PAW_PBE Pt 04Feb2005                  :

 POSCAR: ClBrPt2
  positions in direct lattice
  velocities in cartesian coordinates
 exchange correlation table for  LEXCH =        8
   RHO(1)=    0.500       N(1)  =     2000
   RHO(2)=  100.500       N(2)  =     4000

 ion  position               nearest neighbor table
   1  0.000  0.500  0.168-   4 2.49   4 2.50   4 2.51
   2  0.000  0.500  0.386-   3 2.58   3 2.59   3 2.60
   3  0.333  0.167  0.310-   4 2.58   2 2.58   4 2.59   2 2.59   4 2.60   2 2.60
   4  0.667  0.833  0.236-   1 2.49   1 2.50   1 2.51   3 2.58   3 2.59   3 2.60

IMPORTANT INFORMATION: All symmetrisations will be switched off!
NOSYMM: (Re-)initialisation of all symmetry stuff for point group C_1.

 KPOINTS: Automatic mesh

Automatic generation of k-mesh.
Space group operators:
 irot       det(A)        alpha          n_x          n_y          n_z        tau_x        tau_y        tau_z
    1     1.000000     0.000000     1.000000     0.000000     0.000000     0.000000     0.000000     0.000000

 Subroutine IBZKPT returns following result:

 Found     16 irreducible k-points:

 Following reciprocal coordinates:
            Coordinates               Weight
  0.000000  0.000000  0.000000      1.000000
  0.250000  0.000000  0.000000      1.000000
  0.500000  0.000000  0.000000      1.000000
 -0.250000 -0.000000  0.000000      1.000000
 -0.000000  0.250000  0.000000      1.000000
  0.250000  0.250000  0.000000      1.000000
  0.500000  0.250000  0.000000      1.000000
 -0.250000  0.250000  0.000000      1.000000
 -0.000000  0.500000  0.000000      1.000000
  0.250000  0.500000  0.000000      1.000000
  0.500000  0.500000  0.000000      1.000000
 -0.250000  0.500000  0.000000      1.000000
  0.000000 -0.250000  0.000000      1.000000
  0.250000 -0.250000  0.000000      1.000000
  0.500000 -0.250000  0.000000      1.000000
 -0.250000 -0.250000  0.000000      1.000000

 Following cartesian coordinates:
            Coordinates               Weight
  0.000000  0.000000  0.000000      1.000000
  0.068441  0.038606  0.000000      1.000000
  0.136883  0.077211  0.000000      1.000000
 -0.068441 -0.038606  0.000000      1.000000
  0.000787  0.079361  0.000000      1.000000
  0.069229  0.117966  0.000000      1.000000
  0.137670  0.156572  0.000000      1.000000
 -0.067654  0.040755  0.000000      1.000000
  0.001575  0.158721  0.000000      1.000000
  0.070016  0.197327  0.000000      1.000000
  0.138458  0.235932  0.000000      1.000000
 -0.066867  0.120116  0.000000      1.000000
 -0.000787 -0.079361  0.000000      1.000000
  0.067654 -0.040755  0.000000      1.000000
  0.136096 -0.002149  0.000000      1.000000
 -0.069229 -0.117966  0.000000      1.000000

 SYSTEM =  unknown system
 POSCAR =  ClBrPt2

 Startparameter for this run:
   NWRITE =      2    write-flag & timer
   PREC   = accura    normal or accurate (medium, high low for compatibility)
   ISTART =      0    job   : 0-new  1-cont  2-samecut
   ICHARG =      2    charge: 1-file 2-atom 10-const
   ISPIN  =      1    spin polarized calculation?
   LNONCOLLINEAR =      F non collinear calculations
   LSORBIT =      F    spin-orbit coupling
   INIWAV =      1    electr: 0-lowe 1-rand  2-diag
   LASPH  =      F    aspherical Exc in radial PAW
   METAGGA=      F    non-selfconsistent MetaGGA calc.

 Electronic Relaxation 1
   ENCUT  =  300.0 eV  22.05 Ry    4.70 a.u.   5.19  5.14 28.25*2*pi/ulx,y,z
   ENINI  =  300.0     initial cutoff
   ENAUG  =  503.9 eV  augmentation charge cutoff
   NELM   =     60;   NELMIN=  2; NELMDL= -5     # of ELM steps
   EDIFF  = 0.5E-04   stopping-criterion for ELM
   LREAL  =      F    real-space projection
   NLSPLINE    = F    spline interpolate recip. space projectors
   LCOMPAT=      F    compatible to vasp.4.4
   GGA_COMPAT  = T    GGA compatible to vasp.4.4-vasp.4.6
   LMAXPAW     = -100 max onsite density
   LMAXMIX     =    2 max onsite mixed and CHGCAR
   VOSKOWN=      0    Vosko Wilk Nusair interpolation
   ROPT   =    0.00000   0.00000   0.00000
 Ionic relaxation
   EDIFFG = 0.5E-03   stopping-criterion for IOM
   NSW    =    100    number of steps for IOM
   NBLOCK =      1;   KBLOCK =    100    inner block; outer block
   IBRION =      1    ionic relax: 0-MD 1-quasi-New 2-CG
   NFREE  =      0    steps in history (QN), initial steepest desc. (CG)
   ISIF   =      3    stress and relaxation
   IWAVPR =     11    prediction:  0-non 1-charg 2-wave 3-comb
   ISYM   =     -1    0-nonsym 1-usesym 2-fastsym
   LCORR  =      T    Harris-Foulkes like correction to forces

   POTIM  = 0.5000    time-step for ionic-motion
   TEIN   =    0.0    initial temperature
   TEBEG  =    0.0;   TEEND  =   0.0 temperature during run
   SMASS  =  -3.00    Nose mass-parameter (am)
   estimated Nose-frequenzy (Omega)   =  0.10E-29 period in steps =****** mass=  -0.308E-27a.u.
   SCALEE = 1.0000    scale energy and forces
   NPACO  =    256;   APACO  = 16.0  distance and # of slots for P.C.
   PSTRESS=    0.0 pullay stress

  Mass of Ions in am
   POMASS =  35.45 79.90195.08
  Ionic Valenz
   ZVAL   =   7.00  7.00 10.00
  Atomic Wigner-Seitz radii
  virtual crystal weights
   VCA    =   1.00  1.00  1.00
   NELECT =      34.0000    total number of electrons
   NUPDOWN=      -1.0000    fix difference up-down

 DOS related values:
   EMIN   =  10.00;   EMAX   =-10.00  energy-range for DOS
   EFERMI =   0.00
   ISMEAR =     0;   SIGMA  =   0.10  broadening in eV -4-tet -1-fermi 0-gaus

 Electronic relaxation 2 (details)
   IALGO  =     38    algorithm
   LDIAG  =      T    sub-space diagonalisation (order eigenvalues)
   LSUBROT=      F    optimize rotation matrix (better conditioning)
   TURBO    =      0    0=normal 1=particle mesh
   IRESTART =      0    0=no restart 2=restart with 2 vectors
   NREBOOT  =      0    no. of reboots
   NMIN     =      0    reboot dimension
   EREF     =   0.00    reference energy to select bands
   IMIX   =      4    mixing-type and parameters
     AMIX     =   0.40;   BMIX     =  1.00
     AMIX_MAG =   1.60;   BMIX_MAG =  1.00
     AMIN     =   0.10
     WC   =   100.;   INIMIX=   1;  MIXPRE=   1;  MAXMIX= -45

 Intra band minimization:
   WEIMIN = 0.0010     energy-eigenvalue tresh-hold
   EBREAK =  0.57E-06  absolut break condition
   DEPER  =   0.30     relativ break condition

   TIME   =   0.40     timestep for ELM

  volume/ion in A,a.u.               =      57.86       390.44
  Fermi-wavevector in a.u.,A,eV,Ry     =   0.863827  1.632396 10.152629  0.746197
  Thomas-Fermi vector in A             =   1.981834

 Write flags
   LWAVE        =      T    write WAVECAR
   LDOWNSAMPLE  =      F    k-point downsampling of WAVECAR
   LCHARG       =      T    write CHGCAR
   LVTOT        =      F    write LOCPOT, total local potential
   LVHAR        =      F    write LOCPOT, Hartree potential only
   LELF         =      F    write electronic localiz. function (ELF)
   LORBIT       =      0    0 simple, 1 ext, 2 COOP (PROOUT), +10 PAW based schemes

 Dipole corrections
   LMONO  =      F    monopole corrections only (constant potential shift)
   LDIPOL =      T    correct potential (dipole corrections)
   IDIPOL =      3    1-x, 2-y, 3-z, 4-all directions
   EPSILON=  1.0000000 bulk dielectric constant

 Exchange correlation treatment:
   GGA     =    --    GGA type
   VOSKOWN=      0    Vosko Wilk Nusair interpolation
   LHFCALC =     F    Hartree Fock is set to
   LHFONE  =     F    Hartree Fock one center treatment
   AEXX    =    0.0000 exact exchange contribution

 Linear response parameters
   LEPSILON=     F    determine dielectric tensor
   LRPA    =     F    only Hartree local field effects (RPA)
   LNABLA  =     F    use nabla operator in PAW spheres
   LVEL    =     F    velocity operator in full k-point grid
   LINTERFAST=   F  fast interpolation
   KINTER  =     0    interpolate to denser k-point grid
   CSHIFT  =0.1000    complex shift for real part using Kramers Kronig
   OMEGAMAX=  -1.0    maximum frequency
   DEG_THRESHOLD= 0.2000000E-02 threshold for treating states as degnerate
   RTIME   =   -0.100 relaxation time in fs
  (WPLASMAI=    0.000 imaginary part of plasma frequency in eV, 0.658/RTIME)
   DFIELD  = 0.0000000 0.0000000 0.0000000 field for delta impulse in time

 Orbital magnetization related:
   ORBITALMAG=     F  switch on orbital magnetization
   LCHIMAG   =     F  perturbation theory with respect to B field
   DQ        =  0.001000  dq finite difference perturbation B field
   LLRAUG    =     F  two centre corrections for induced B field

 quasi-Newton-method for relaxation of ions
 charge density and potential will be updated during run
 non-spin polarized calculation
 Variant of blocked Davidson
 Davidson routine will perform the subspace rotation
 perform sub-space diagonalisation
    after iterative eigenvector-optimisation
 modified Broyden-mixing scheme, WC =      100.0
 initial mixing is a Kerker type mixing with AMIX =  0.4000 and BMIX =      1.0000
 Hartree-type preconditioning will be used
 using additional bands            5
 reciprocal scheme for non local part
 use partial core corrections
 calculate Harris-corrections to forces
   (improved forces if not selfconsistent)
 use gradient corrections
 use of overlap-Matrix (Vanderbilt PP)
 Gauss-broadening in eV      SIGMA  =   0.10

  energy-cutoff  :      300.00
  volume of cell :      231.43
      direct lattice vectors                 reciprocal lattice vectors
     3.673314428 -0.036443352  0.000000000     0.273765746  0.154422299  0.000000000
    -1.786911496  3.167904907  0.000000000     0.003149382  0.317442504  0.000000000
     0.000000000  0.000000000 20.000000000     0.000000000  0.000000000  0.050000000

  length of vectors
     3.673495202  3.637124440 20.000000000     0.314315018  0.317458126  0.050000000

 k-points in units of 2pi/SCALE and weight: Automatic mesh
   0.00000000  0.00000000  0.00000000       0.062
   0.06844144  0.03860557  0.00000000       0.062
   0.13688287  0.07721115  0.00000000       0.062
  -0.06844144 -0.03860557  0.00000000       0.062
   0.00078735  0.07936063  0.00000000       0.062
   0.06922878  0.11796620  0.00000000       0.062
   0.13767022  0.15657178  0.00000000       0.062
  -0.06765409  0.04075505  0.00000000       0.062
   0.00157469  0.15872125  0.00000000       0.062
[...]
   0.00000000 -0.25000000  0.00000000       0.062
   0.25000000 -0.25000000  0.00000000       0.062
   0.50000000 -0.25000000  0.00000000       0.062
  -0.25000000 -0.25000000  0.00000000       0.062

 position of ions in fractional coordinates (direct lattice)
   0.00003284  0.49996180  0.16834626
   0.00003221  0.49995994  0.38572384
   0.33336542  0.16662742  0.31048675
   0.66669892  0.83329448  0.23567645

 position of ions in cartesian coordinates  (Angst):
  -0.89326685  1.58383024  3.36692514
  -0.89326585  1.58382437  7.71447671
   0.92680756  0.51571087  6.20973506
   0.95997129  2.61550093  4.71352901

 k-point  1 :   0.0000 0.0000 0.0000  plane waves:    2705
 k-point  2 :   0.2500 0.0000 0.0000  plane waves:    2723
 k-point  3 :   0.5000 0.0000 0.0000  plane waves:    2722
 k-point  4 :  -0.2500-0.0000 0.0000  plane waves:    2723
 k-point  5 :  -0.0000 0.2500 0.0000  plane waves:    2735
 k-point  6 :   0.2500 0.2500 0.0000  plane waves:    2729
 k-point  7 :   0.5000 0.2500 0.0000  plane waves:    2735
 k-point  8 :  -0.2500 0.2500 0.0000  plane waves:    2721
 k-point  9 :  -0.0000 0.5000 0.0000  plane waves:    2758
 k-point 10 :   0.2500 0.5000 0.0000  plane waves:    2731
 k-point 11 :   0.5000 0.5000 0.0000  plane waves:    2738
 k-point 12 :  -0.2500 0.5000 0.0000  plane waves:    2731
 k-point 13 :   0.0000-0.2500 0.0000  plane waves:    2735
 k-point 14 :   0.2500-0.2500 0.0000  plane waves:    2721
 k-point 15 :   0.5000-0.2500 0.0000  plane waves:    2735
 k-point 16 :  -0.2500-0.2500 0.0000  plane waves:    2729

 maximum and minimum number of plane-waves per node :      2758     2705

 maximum number of plane-waves:      2758
 maximum index in each direction:
   IXMAX=    5   IYMAX=    5   IZMAX=   28
   IXMIN=   -5   IYMIN=   -5   IZMIN=  -28

 serial   3D FFT for wavefunctions
 parallel 3D FFT for charge:
    minimum data exchange during FFTs selected (reduces bandwidth)

 Broyden mixing: mesh for mixing (old mesh)
   NGX = 11   NGY = 11   NGZ = 57
  (NGX  = 48   NGY  = 48   NGZ  =240)
  gives a total of   6897 points

 initial charge density was supplied:
 charge density of overlapping atoms calculated
 number of electron      34.0000000 magnetization
 keeping initial charge density in first step

 Maximum index for augmentation-charges         8751 (set IRDMAX)

 First call to EWALD:  gamma=   0.289
 Maximum number of real-space cells 5x 5x 1
 Maximum number of reciprocal cells 2x 2x 8

--------------------------------------- Iteration      1(   1)  ---------------------------------------

 eigenvalue-minimisations  :   704
 total energy-change (2. order) : 0.2232260E+03  (-0.1005180E+04)
 number of electron      34.0000000 magnetization
 augmentation part       34.0000000 magnetization

 DIPCOR: dipole corrections for dipol
 direction  3 min pos   183,
 dipolmoment           0.000000      0.000000     -0.000023 electrons x Angstroem
 Tr[quadrupol]       -79.923168

 energy correction for charged system         0.000000 eV
 dipol+quadrupol energy correction           -0.000000 eV
 added-field ion interaction          0.000198 eV  (added to PSCEN)

 Free energy of the ion-electron system (eV)
  alpha Z        PSCENC =        41.94087142
  Ewald energy   TEWEN  =      5878.56677358
  -Hartree energ DENC   =     -8066.94160998
  -exchange      EXHF   =         0.00000000
  -V(xc)+E(xc)   XCENC  =        37.04766492
  PAW double counting   =      2012.60260865    -1949.97488812
  entropy T*S    EENTRO =        -0.01163398
  eigenvalues    EBANDS =        33.69167407
  atomic energy  EATOM  =      2236.30457717
  Solvation  Ediel_sol  =         0.00000000
  free energy    TOTEN  =       223.22603773 eV

  energy without entropy =      223.23767171  energy(sigma->0) =      223.23185472

[...]

 eigenvalue-minimisations  :  1084
 total energy-change (2. order) :-0.2206781E+03  (-0.2118656E+03)
 number of electron      34.0000000 magnetization
 augmentation part       34.0000000 magnetization

[...]

 Broyden mixing:
  rms(total) = 0.15377E+01    rms(broyden)= 0.15375E+01
  rms(prec ) = 0.15626E+01
  weight for this iteration     100.00

[...]

 eigenvalues of (default mixing * dielectric matrix)
  average eigenvalue GAMMA=   1.8277
  1.8277

[...]

 average (electrostatic) potential at core
  the test charge radii are     0.9406  1.0178  1.2059
  (the norm of the test charge is              1.0000)
       1 -97.8268       2 -67.9871       3 -75.1631       4 -75.1137

 E-fermi :  -1.5834     XC(G=0):  -4.3245     alpha+bet : -3.9154

 k-point     1 :       0.0000    0.0000    0.0000
  band No.  band energies     occupation
      1     -17.6311      2.00000
      2     -17.4982      2.00000
      3      -8.1089      2.00000
      4      -6.8832      2.00000
      5      -6.8781      2.00000
      6      -6.8506      2.00000
      7      -5.9102      2.00000
      8      -5.8434      2.00000
      9      -4.4962      2.00000
     10      -4.4665      2.00000
     11      -3.8354      2.00000
     12      -2.9272      2.00000
     13      -2.8863      2.00000
     14      -2.8064      2.00000
     15      -2.2358      2.00000
     16      -2.2233      2.00000
     17      -2.1243      2.00000
     18      -0.3985      0.00000
     19      -0.3452      0.00000
     20       2.0368      0.00000
     21       3.1588      0.00000
     22       3.7672      0.00000

[...]

 soft charge-density along one line, spin component           1
         0         1         2         3         4         5         6         7         8         9
 total charge-density along one line

------------------------ aborting loop because EDIFF is reached ----------------------------------------

         DFTD3 V3.0 Rev 1
 IVDW         = 11
 DF pbe
 parameters
 VDW_S6       =    1.0000
 VDW_S8       =    0.7220
 VDW_SR       =    1.2170
 rs18     =    1.0000
 alpha6   =   14.0000
 alpha8   =   16.0000
 k1-k3    =   16.0000    1.3333   -4.0000
 VDW_RADIUS   =   50.2022 A
 VDW_CNRADIUS =   21.1671 A
 Edisp (eV)   -1.22836

 E6    (eV) :    -0.3534
 E8    (eV) :    -0.8750
 % E8        : 71.23

  FORCE on cell =-STRESS in cart. coord.  units (eV):
  Direction    XX          YY          ZZ          XY          YZ          ZX
  Alpha Z    41.94067    41.94067    41.94067
  Ewald    7387.79384  7392.61861 -8901.84576    -1.37437    -6.08666    -3.73228
  Hartree  7869.97503  7872.02835 -7685.44931    -0.59592    -2.18969    -1.35025
  E(xc)    -140.87405  -140.89988  -141.35645     0.00711    -0.00499    -0.00321
  Local  -15884.03912-15891.29663 15954.01664     2.08004     7.96317     4.89175
  n-local   140.94535   141.48269   142.74704    -0.14728    -0.23343    -0.14000
  augment    78.83722    78.87015    79.80910    -0.01034     0.05482     0.03323
  Kinetic   505.10877   505.62547   509.68697    -0.14642     0.23914     0.14726
  Fock        0.00000     0.00000     0.00000     0.00000     0.00000     0.00000
  vdW        -0.82095    -0.78685    -0.24001    -0.00956     0.00547     0.00341
  Total      -1.13325    -0.41742    -0.69112    -0.19674    -0.25218    -0.15009
  in kB      -7.84538    -2.88975    -4.78455    -1.36203    -1.74583    -1.03908

 VOLUME and BASIS-vectors are now :
  energy-cutoff  :      300.00
  volume of cell :      231.43
      direct lattice vectors                 reciprocal lattice vectors
     3.673314428 -0.036443352  0.000000000     0.273765746  0.154422299  0.000000000
    -1.786911496  3.167904907  0.000000000     0.003149382  0.317442504  0.000000000
     0.000000000  0.000000000 20.000000000     0.000000000  0.000000000  0.050000000

[...]

 FORCES acting on ions
    electron-ion (+dipol)            ewald-force                    non-local-force                 convergence-correction
   -.842E+00 -.137E+01 0.980E+03   0.882E+00 0.144E+01 -.986E+03   -.161E-01 -.252E-01 0.559E+01   -.470E-03 -.669E-03 -.913E-01
   0.694E+00 0.113E+01 -.989E+03   -.721E+00 -.117E+01 0.992E+03   -.466E-02 -.824E-02 -.275E+01   0.371E-03 0.496E-03 0.112E+00
   0.269E+00 0.439E+00 -.562E+03   -.255E+00 -.416E+00 0.555E+03   -.333E-01 -.535E-01 0.643E+01   -.177E-03 -.317E-03 0.160E+00
   -.992E-01 -.159E+00 0.567E+03   0.935E-01 0.152E+00 -.561E+03   0.314E-01 0.502E-01 -.634E+01   0.208E-03 0.128E-03 -.648E-01
   0.228E-01 0.371E-01 -.306E+01   -.315E-14 0.155E-13 -.114E-12   -.227E-01 -.367E-01 0.294E+01   -.687E-04 -.362E-03 0.116E+00

 POSITION                                       TOTAL-FORCE (eV/Angst)
     -0.89327      1.58383      3.36693         0.023167      0.039104      0.078720
     -0.89327      1.58382      7.71448        -0.030402     -0.050976     -0.095085
      0.92681      0.51571      6.20974        -0.018282     -0.030681     -0.075284
      0.95997      2.61550      4.71353         0.025517      0.042553      0.091650
    total drift:                                0.000010     -0.000053     -0.004292

  FREE ENERGIE OF THE ION-ELECTRON SYSTEM (eV)
  free  energy   TOTEN  =       -17.79501871 eV

  energy  without entropy=      -17.79501871  energy(sigma->0) =      -17.79501871

 Quasi-Newton relaxation of ions (Broydens 2nd method)
  g(Force)  = 0.186E-02   g(Stress)= 0.210E-02

 Reset! Starting new Quasi-Newton update for ions

[...]

         DFTD3 V3.0 Rev 1
 Edisp (eV)   -1.23286

[...]

 d Force = 0.1111151E-02[ 0.360E-03, 0.186E-02]  d Energy = 0.1658829E-02-0.548E-03
 d Force =-0.1281423E+02[-0.129E+02,-0.128E+02]  d Ewald  =-0.5026266E+02 0.374E+02

[...]

 retain information from N=  1 steps
 eigenvalues of (default step * inverse Hessian matrix)
  average eigenvalue of G=   0.6385
 eigenvalue spectrum of G is  0.6385

[...]

 d Force = 0.4634543E-03[ 0.330E-03, 0.596E-03]  d Energy = 0.7363015E-03-0.273E-03
 d Force =-0.4998153E+00[-0.499E+00,-0.500E+00]  d Ewald  = 0.1332876E+02-0.138E+02

[...]

 eigenvalue-minimisations  :   790
 total energy-change (2. order) : 0.8227483E-04  (-0.1634350E-04)
 number of electron      34.0000007 magnetization
 augmentation part        3.8500494 magnetization

[...]

 Broyden mixing:
  rms(total) = 0.51207E-02    rms(broyden)= 0.51205E-02
  rms(prec ) = 0.54434E-02
  weight for this iteration     100.00

 eigenvalues of (default mixing * dielectric matrix)
  average eigenvalue GAMMA=   1.1176
  1.1176  1.1176

[...]

--------------------------------------- Iteration      4(   4)  ---------------------------------------

 eigenvalue-minimisations  :   650
 total energy-change (2. order) :-0.2702485E-05  (-0.1343641E-04)
 number of electron      34.0000007 magnetization
 augmentation part        3.8500494 magnetization

 DIPCOR: dipole corrections for dipol
 direction  3 min pos   183,
 dipolmoment           0.000000      0.000000     -0.036524 electrons x Angstroem
 Tr[quadrupol]       -79.351722

 energy correction for charged system         0.000000 eV
 dipol+quadrupol energy correction           -0.000522 eV
 added-field ion interaction          0.318519 eV  (added to PSCEN)

 Free energy of the ion-electron system (eV)
  alpha Z        PSCENC =        42.32902435
  Ewald energy   TEWEN  =      5910.08623450
  -Hartree energ DENC   =     -8087.48481506
  -exchange      EXHF   =         0.00000000
  -V(xc)+E(xc)   XCENC  =        36.78966826
  PAW double counting   =      2731.51513183    -2674.75610358
  entropy T*S    EENTRO =        -0.00000000
  eigenvalues    EBANDS =      -211.35103737
  atomic energy  EATOM  =      2236.30457717
  Solvation  Ediel_sol  =         0.00000000
  free energy    TOTEN  =       -16.56731990 eV

  energy without entropy =      -16.56731990  energy(sigma->0) =      -16.56731990

 average (electrostatic) potential at core
  the test charge radii are     0.9406  1.0178  1.2059
  (the norm of the test charge is              1.0000)
       1 -97.8427       2 -67.9940       3 -75.1700       4 -75.1317

 E-fermi :  -1.5734     XC(G=0):  -4.2845     alpha+bet : -3.8817

[...]

 k-point    16 :      -0.2500   -0.2500    0.0000
  band No.  band energies     occupation
      1     -17.1960      2.00000
      2     -17.0376      2.00000
      3      -7.5629      2.00000
      4      -7.1051      2.00000
      5      -7.0437      2.00000
      6      -6.3516      2.00000
      7      -6.2404      2.00000
      8      -5.9117      2.00000
      9      -5.4066      2.00000
     10      -5.1792      2.00000
     11      -3.8667      2.00000
     12      -3.4988      2.00000
     13      -3.2691      2.00000
     14      -3.0615      2.00000
     15      -3.0040      2.00000
     16      -2.4084      2.00000
     17      -2.0816      2.00000
     18      -0.3587      0.00000
     19       1.2168      0.00000
     20       2.9648      0.00000
     21       4.5192      0.00000
     22       5.4821      0.00000

 soft charge-density along one line, spin component           1
         0         1         2         3         4         5         6         7         8         9
 total charge-density along one line

------------------------ aborting loop because EDIFF is reached ----------------------------------------

         DFTD3 V3.0 Rev 1
 Edisp (eV)   -1.23047

 E6    (eV) :    -0.3542
 E8    (eV) :    -0.8763
 % E8        : 71.22

  FORCE on cell =-STRESS in cart. coord.  units (eV):
  Direction    XX          YY          ZZ          XY          YZ          ZX
  Alpha Z    42.01103    42.01103    42.01103
  Ewald    7423.99437  7425.16501 -8939.07307    -0.42958    -5.20381    -2.86578
  Hartree  7902.76572  7903.55151 -7718.56274    -0.25799    -1.88668    -1.04654
  E(xc)    -140.93515  -140.96446  -141.43220     0.00819    -0.00939    -0.00460
  Local  -15952.96727-15955.54861 16023.92674     0.85532     6.74094     3.73539
  n-local   141.36248   141.74273   143.16190    -0.10466    -0.11540    -0.06861
  augment    78.75076    78.86833    79.81648    -0.02660     0.03654     0.02103
  Kinetic   505.05736   505.91188   510.00620    -0.19291     0.26733     0.14712
  Fock        0.00000     0.00000     0.00000     0.00000     0.00000     0.00000
  vdW        -0.82072    -0.77753    -0.22179    -0.01032     0.00782     0.00419
  Total      -0.78142    -0.04011    -0.36745    -0.15856    -0.16264    -0.07779
  in kB      -5.41876    -0.27815    -2.54809    -1.09952    -1.12783    -0.53947

 VOLUME and BASIS-vectors are now :
  energy-cutoff  :      300.00
  volume of cell :      231.04
      direct lattice vectors                 reciprocal lattice vectors
     3.673314428 -0.036382322  0.000000000     0.273765746  0.154681336  0.000000000
    -1.786911496  3.162599779  0.000000000     0.003149382  0.317975000  0.000000000
     0.000000000  0.000000000 20.000000000     0.000000000  0.000000000  0.050000000

  length of vectors
     3.673494597  3.632504654 20.000000000     0.314442363  0.317990597  0.050000000

 FORCES acting on ions
    electron-ion (+dipol)            ewald-force                    non-local-force                 convergence-correction
   -.723E+00 -.126E+01 0.983E+03   0.772E+00 0.137E+01 -.988E+03   -.282E-01 -.596E-01 0.555E+01   -.443E-02 -.176E-01 0.392E-01
   0.506E+00 0.883E+00 -.992E+03   -.528E+00 -.931E+00 0.994E+03   -.135E-03 0.396E-02 -.273E+01   0.267E-02 0.114E-01 0.764E-01
   0.200E+00 0.448E+00 -.563E+03   -.169E+00 -.392E+00 0.556E+03   -.323E-01 -.690E-01 0.650E+01   -.242E-02 -.235E-02 0.412E+00
   0.606E-01 0.197E-01 0.568E+03   -.754E-01 -.442E-01 -.562E+03   0.166E-01 0.403E-01 -.641E+01   0.373E-02 0.450E-02 0.379E+00
   0.442E-01 0.902E-01 -.382E+01   0.119E-13 0.719E-14 -.114E-12   -.440E-01 -.843E-01 0.291E+01   -.457E-03 -.406E-02 0.907E+00

 POSITION                                       TOTAL-FORCE (eV/Angst)
     -0.89010      1.58820      3.37454         0.015631      0.027312      0.027468
     -0.89726      1.57261      7.70720        -0.018441     -0.031176     -0.055852
      0.92579      0.51299      6.20564        -0.002426     -0.015022      0.025143
      0.96181      2.61452      4.71728         0.005236      0.018885      0.003241
    total drift:                               -0.000260      0.001872      0.001570

  FREE ENERGIE OF THE ION-ELECTRON SYSTEM (eV)
  free  energy   TOTEN  =       -17.79779434 eV

  energy  without entropy=      -17.79779434  energy(sigma->0) =      -17.79779434

 d Force = 0.5253834E-03[ 0.386E-03, 0.665E-03]  d Energy = 0.3804963E-03 0.145E-03
 d Force =-0.5819201E+01[-0.582E+01,-0.582E+01]  d Ewald  = 0.5414437E+01-0.112E+02

 Quasi-Newton relaxation of ions (Broydens 2nd method)
  g(Force)  = 0.359E-03   g(Stress)= 0.194E-04

 retain information from N=  1 steps
 eigenvalues of (default step * inverse Hessian matrix)
  average eigenvalue of G=   0.8544
 eigenvalue spectrum of G is  0.8544

 reached required accuracy - stopping structural energy minimisation
 writing wavefunctions