 vasp.5.4.4.16052018 (build Dec 07 2020 11:33:42) complex

 executed on             LinuxIFC date 2020.12.16  03:04:22

 INCAR:
 POTCAR:    PAW_PBE Cl 06Sep2000
 POTCAR:    PAW_PBE Br 06Sep2000
 POTCAR:    PAW_PBE Pt 04Feb2005

 POTCAR:    PAW_PBE Cl 06Sep2000
   VRHFIN =Cl: s2p5

   TITEL  = PAW_PBE Cl 06Sep2000
   POMASS =   35.453; ZVAL   =    7.000    mass and valenz
   ENMAX  =  262.472; ENMIN  =  196.854 eV

 POTCAR:    PAW_PBE Br 06Sep2000
   VRHFIN =Br: s2p5

   TITEL  = PAW_PBE Br 06Sep2000
   POMASS =   79.904; ZVAL   =    7.000    mass and valenz
   ENMAX  =  216.285; ENMIN  =  162.214 eV

 POTCAR:    PAW_PBE Pt 04Feb2005
   VRHFIN =Pt: s1d9

   TITEL  = PAW_PBE Pt 04Feb2005
   POMASS =  195.080; ZVAL   =   10.000    mass and valenz
   ENMAX  =  230.283; ENMIN  =  172.712 eV

  PAW_PBE Cl 06Sep2000                  :
  PAW_PBE Br 06Sep2000                  :
  PAW_PBE Pt 04Feb2005                  :

 POSCAR: ClBrPt2
  positions in direct lattice
  velocities in cartesian coordinates
 exchange correlation table for  LEXCH =        8
   RHO(1)=    0.500       N(1)  =     2000
   RHO(2)=  100.500       N(2)  =     4000

 ion  position               nearest neighbor table
   1  0.000  0.500  0.170-   4 2.51   4 2.51   4 2.52
   2  0.000  0.500  0.385-   3 2.60   3 2.60   3 2.61
   3  0.333  0.167  0.310-   4 2.59   2 2.60   4 2.60   2 2.60   4 2.60   2 2.61
   4  0.667  0.833  0.236-   1 2.51   1 2.51   1 2.52   3 2.59   3 2.60   3 2.60

IMPORTANT INFORMATION: All symmetrisations will be switched off!
NOSYMM: (Re-)initialisation of all symmetry stuff for point group C_1.

 KPOINTS: Automatic mesh

Automatic generation of k-mesh.
Space group operators:
 irot       det(A)        alpha          n_x          n_y          n_z        tau_x        tau_y        tau_z
    1     1.000000     0.000000     1.000000     0.000000     0.000000     0.000000     0.000000     0.000000

 Subroutine IBZKPT returns following result:

 Found     64 irreducible k-points:

 Following reciprocal coordinates:
            Coordinates               Weight
  0.000000  0.000000  0.000000      1.000000
  0.125000 -0.000000  0.000000      1.000000
  0.250000 -0.000000  0.000000      1.000000
  0.375000 -0.000000  0.000000      1.000000
  0.500000 -0.000000  0.000000      1.000000
 -0.375000  0.000000  0.000000      1.000000
 -0.250000  0.000000  0.000000      1.000000
 -0.125000  0.000000  0.000000      1.000000
 -0.000000  0.125000  0.000000      1.000000
  0.125000  0.125000  0.000000      1.000000
  0.250000  0.125000  0.000000      1.000000
  0.375000  0.125000  0.000000      1.000000
  0.500000  0.125000  0.000000      1.000000
 -0.375000  0.125000  0.000000      1.000000
 -0.250000  0.125000  0.000000      1.000000
 -0.125000  0.125000  0.000000      1.000000
 -0.000000  0.250000  0.000000      1.000000
  0.125000  0.250000  0.000000      1.000000
  0.250000  0.250000  0.000000      1.000000
  0.375000  0.250000  0.000000      1.000000
  0.500000  0.250000  0.000000      1.000000
 -0.375000  0.250000  0.000000      1.000000
 -0.250000  0.250000  0.000000      1.000000
 -0.125000  0.250000  0.000000      1.000000
  0.000000  0.375000  0.000000      1.000000
  0.125000  0.375000  0.000000      1.000000
  0.250000  0.375000  0.000000      1.000000
  0.375000  0.375000  0.000000      1.000000
  0.500000  0.375000  0.000000      1.000000
 -0.375000  0.375000  0.000000      1.000000
 -0.250000  0.375000  0.000000      1.000000
 -0.125000  0.375000  0.000000      1.000000
 -0.000000  0.500000  0.000000      1.000000
  0.125000  0.500000  0.000000      1.000000
  0.250000  0.500000  0.000000      1.000000
  0.375000  0.500000  0.000000      1.000000
  0.500000  0.500000  0.000000      1.000000
 -0.375000  0.500000  0.000000      1.000000
 -0.250000  0.500000  0.000000      1.000000
 -0.125000  0.500000  0.000000      1.000000
 -0.000000 -0.375000  0.000000      1.000000
  0.125000 -0.375000  0.000000      1.000000
  0.250000 -0.375000  0.000000      1.000000
  0.375000 -0.375000  0.000000      1.000000
  0.500000 -0.375000  0.000000      1.000000
 -0.375000 -0.375000  0.000000      1.000000
 -0.250000 -0.375000  0.000000      1.000000
 -0.125000 -0.375000  0.000000      1.000000
  0.000000 -0.250000  0.000000      1.000000
  0.125000 -0.250000  0.000000      1.000000
  0.250000 -0.250000  0.000000      1.000000
  0.375000 -0.250000  0.000000      1.000000
  0.500000 -0.250000  0.000000      1.000000
 -0.375000 -0.250000  0.000000      1.000000
 -0.250000 -0.250000  0.000000      1.000000
 -0.125000 -0.250000  0.000000      1.000000
  0.000000 -0.125000  0.000000      1.000000
  0.125000 -0.125000  0.000000      1.000000
  0.250000 -0.125000  0.000000      1.000000
  0.375000 -0.125000  0.000000      1.000000
  0.500000 -0.125000  0.000000      1.000000
 -0.375000 -0.125000  0.000000      1.000000
 -0.250000 -0.125000  0.000000      1.000000
 -0.125000 -0.125000  0.000000      1.000000

 Following cartesian coordinates:
            Coordinates               Weight
  0.000000  0.000000  0.000000      1.000000
  0.034045  0.019013  0.000000      1.000000
  0.068090  0.038027  0.000000      1.000000
  0.102135  0.057040  0.000000      1.000000
  0.136179  0.076054  0.000000      1.000000
 -0.102135 -0.057040  0.000000      1.000000
 -0.068090 -0.038027  0.000000      1.000000
 -0.034045 -0.019013  0.000000      1.000000
  0.000388  0.039085  0.000000      1.000000
  0.034433  0.058099  0.000000      1.000000
  0.068477  0.077112  0.000000      1.000000
  0.102522  0.096126  0.000000      1.000000
  0.136567  0.115139  0.000000      1.000000
 -0.101747 -0.017955  0.000000      1.000000
 -0.067702  0.001059  0.000000      1.000000
 -0.033657  0.020072  0.000000      1.000000
  0.000776  0.078171  0.000000      1.000000
  0.034820  0.097184  0.000000      1.000000
  0.068865  0.116198  0.000000      1.000000
  0.102910  0.135211  0.000000      1.000000
  0.136955  0.154225  0.000000      1.000000
 -0.101359  0.021131  0.000000      1.000000
 -0.067314  0.040144  0.000000      1.000000
 -0.033269  0.059158  0.000000      1.000000
  0.001163  0.117256  0.000000      1.000000
  0.035208  0.136270  0.000000      1.000000
  0.069253  0.155283  0.000000      1.000000
  0.103298  0.174297  0.000000      1.000000
  0.137343  0.193310  0.000000      1.000000
 -0.100971  0.060216  0.000000      1.000000
 -0.066926  0.079230  0.000000      1.000000
 -0.032882  0.098243  0.000000      1.000000
  0.001551  0.156342  0.000000      1.000000
  0.035596  0.175355  0.000000      1.000000
  0.069641  0.194369  0.000000      1.000000
  0.103686  0.213382  0.000000      1.000000
  0.137730  0.232396  0.000000      1.000000
 -0.100584  0.099302  0.000000      1.000000
 -0.066539  0.118315  0.000000      1.000000
 -0.032494  0.137329  0.000000      1.000000
 -0.001163 -0.117256  0.000000      1.000000
  0.032882 -0.098243  0.000000      1.000000
  0.066926 -0.079230  0.000000      1.000000
  0.100971 -0.060216  0.000000      1.000000
  0.135016 -0.041203  0.000000      1.000000
 -0.103298 -0.174297  0.000000      1.000000
 -0.069253 -0.155283  0.000000      1.000000
 -0.035208 -0.136270  0.000000      1.000000
 -0.000776 -0.078171  0.000000      1.000000
  0.033269 -0.059158  0.000000      1.000000
  0.067314 -0.040144  0.000000      1.000000
  0.101359 -0.021131  0.000000      1.000000
  0.135404 -0.002117  0.000000      1.000000
 -0.102910 -0.135211  0.000000      1.000000
 -0.068865 -0.116198  0.000000      1.000000
 -0.034820 -0.097184  0.000000      1.000000
 -0.000388 -0.039085  0.000000      1.000000
  0.033657 -0.020072  0.000000      1.000000
  0.067702 -0.001059  0.000000      1.000000
  0.101747  0.017955  0.000000      1.000000
  0.135792  0.036968  0.000000      1.000000
 -0.102522 -0.096126  0.000000      1.000000
 -0.068477 -0.077112  0.000000      1.000000
 -0.034433 -0.058099  0.000000      1.000000

 SYSTEM =  unknown system
 POSCAR =  ClBrPt2

 Startparameter for this run:
   NWRITE =      2    write-flag & timer
   PREC   = accura    normal or accurate (medium, high low for compatibility)
   ISTART =      0    job   : 0-new  1-cont  2-samecut
   ICHARG =      2    charge: 1-file 2-atom 10-const
   ISPIN  =      1    spin polarized calculation?
   LNONCOLLINEAR =      F non collinear calculations
   LSORBIT =      F    spin-orbit coupling
   INIWAV =      1    electr: 0-lowe 1-rand  2-diag
   LASPH  =      F    aspherical Exc in radial PAW
   METAGGA=      F    non-selfconsistent MetaGGA calc.

 Electronic Relaxation 1
   ENCUT  =  400.0 eV  29.40 Ry    5.42 a.u.   6.02  6.01 32.61*2*pi/ulx,y,z
   ENINI  =  400.0     initial cutoff
   ENAUG  =  503.9 eV  augmentation charge cutoff
   NELM   =     60;   NELMIN=  2; NELMDL= -5     # of ELM steps
   EDIFF  = 0.5E-07   stopping-criterion for ELM
   LREAL  =      F    real-space projection
   NLSPLINE    = F    spline interpolate recip. space projectors
   LCOMPAT=      F    compatible to vasp.4.4
   GGA_COMPAT  = T    GGA compatible to vasp.4.4-vasp.4.6
   LMAXPAW     = -100 max onsite density
   LMAXMIX     =    2 max onsite mixed and CHGCAR
   VOSKOWN=      0    Vosko Wilk Nusair interpolation
   ROPT   =    0.00000   0.00000   0.00000
 Ionic relaxation
   EDIFFG = 0.5E-06   stopping-criterion for IOM
   NSW    =    100    number of steps for IOM
   NBLOCK =      1;   KBLOCK =    100    inner block; outer block
   IBRION =      1    ionic relax: 0-MD 1-quasi-New 2-CG
   NFREE  =      0    steps in history (QN), initial steepest desc. (CG)
   ISIF   =      3    stress and relaxation
   IWAVPR =     11    prediction:  0-non 1-charg 2-wave 3-comb
   ISYM   =     -1    0-nonsym 1-usesym 2-fastsym
   LCORR  =      T    Harris-Foulkes like correction to forces

   POTIM  = 0.5000    time-step for ionic-motion
   TEIN   =    0.0    initial temperature
   TEBEG  =    0.0;   TEEND  =   0.0 temperature during run
   SMASS  =  -3.00    Nose mass-parameter (am)
   estimated Nose-frequenzy (Omega)   =  0.10E-29 period in steps =****** mass=  -0.312E-27a.u.
   SCALEE = 1.0000    scale energy and forces
   NPACO  =    256;   APACO  = 16.0  distance and # of slots for P.C.
   PSTRESS=    0.0 pullay stress

  Mass of Ions in am
   POMASS =  35.45 79.90195.08
  Ionic Valenz
   ZVAL   =   7.00  7.00 10.00
  Atomic Wigner-Seitz radii
  virtual crystal weights
   VCA    =   1.00  1.00  1.00
   NELECT =      34.0000    total number of electrons
   NUPDOWN=      -1.0000    fix difference up-down

 DOS related values:
   EMIN   =  10.00;   EMAX   =-10.00  energy-range for DOS
   EFERMI =   0.00
   ISMEAR =     0;   SIGMA  =   0.10  broadening in eV -4-tet -1-fermi 0-gaus

 Electronic relaxation 2 (details)
   IALGO  =     38    algorithm
   LDIAG  =      T    sub-space diagonalisation (order eigenvalues)
   LSUBROT=      F    optimize rotation matrix (better conditioning)
   TURBO    =      0    0=normal 1=particle mesh
   IRESTART =      0    0=no restart 2=restart with 2 vectors
   NREBOOT  =      0    no. of reboots
   NMIN     =      0    reboot dimension
   EREF     =   0.00    reference energy to select bands
   IMIX   =      4    mixing-type and parameters
[...]
 k-point 45 :   0.5000-0.3750 0.0000  plane waves:    4314
 k-point 46 :  -0.3750-0.3750 0.0000  plane waves:    4342
 k-point 47 :  -0.2500-0.3750 0.0000  plane waves:    4334
 k-point 48 :  -0.1250-0.3750 0.0000  plane waves:    4312
 k-point 49 :   0.0000-0.2500 0.0000  plane waves:    4276
 k-point 50 :   0.1250-0.2500 0.0000  plane waves:    4271
 k-point 51 :   0.2500-0.2500 0.0000  plane waves:    4272
 k-point 52 :   0.3750-0.2500 0.0000  plane waves:    4283
 k-point 53 :   0.5000-0.2500 0.0000  plane waves:    4310
 k-point 54 :  -0.3750-0.2500 0.0000  plane waves:    4327
 k-point 55 :  -0.2500-0.2500 0.0000  plane waves:    4306
 k-point 56 :  -0.1250-0.2500 0.0000  plane waves:    4285
 k-point 57 :   0.0000-0.1250 0.0000  plane waves:    4245
 k-point 58 :   0.1250-0.1250 0.0000  plane waves:    4247
 k-point 59 :   0.2500-0.1250 0.0000  plane waves:    4262
 k-point 60 :   0.3750-0.1250 0.0000  plane waves:    4289
 k-point 61 :   0.5000-0.1250 0.0000  plane waves:    4303
 k-point 62 :  -0.3750-0.1250 0.0000  plane waves:    4308
 k-point 63 :  -0.2500-0.1250 0.0000  plane waves:    4283
 k-point 64 :  -0.1250-0.1250 0.0000  plane waves:    4256

 maximum and minimum number of plane-waves per node :      4342     4229

 maximum number of plane-waves:      4342
 maximum index in each direction:
   IXMAX=    6   IYMAX=    6   IZMAX=   32
   IXMIN=   -6   IYMIN=   -6   IZMIN=  -32

 serial   3D FFT for wavefunctions
 parallel 3D FFT for charge:
    minimum data exchange during FFTs selected (reduces bandwidth)

 Broyden mixing: mesh for mixing (old mesh)
   NGX = 13   NGY = 13   NGZ = 65
  (NGX  = 48   NGY  = 48   NGZ  =280)
  gives a total of  10985 points

 initial charge density was supplied:
 charge density of overlapping atoms calculated
 number of electron      34.0000000 magnetization
 keeping initial charge density in first step

 Maximum index for augmentation-charges         9992 (set IRDMAX)

 First call to EWALD:  gamma=   0.287
 Maximum number of real-space cells 5x 5x 1
 Maximum number of reciprocal cells 2x 2x 8

--------------------------------------- Iteration      1(   1)  ---------------------------------------

 eigenvalue-minimisations  :  2816
 total energy-change (2. order) : 0.2443297E+03  (-0.1153257E+04)
 number of electron      34.0000000 magnetization
 augmentation part       34.0000000 magnetization

 DIPCOR: dipole corrections for dipol
 direction  3 min pos   209,
 dipolmoment           0.000000      0.000000     -0.000028 electrons x Angstroem
 Tr[quadrupol]       -81.606415

 energy correction for charged system         0.000000 eV
 dipol+quadrupol energy correction           -0.000000 eV
 added-field ion interaction          0.000465 eV  (added to PSCEN)

 Free energy of the ion-electron system (eV)
  alpha Z        PSCENC =        41.10242547
  Ewald energy   TEWEN  =      5782.23492232
  -Hartree energ DENC   =     -7967.98915328
  -exchange      EXHF   =         0.00000000
  -V(xc)+E(xc)   XCENC  =        36.92069122
  PAW double counting   =      2012.60260865    -1949.97488812
  entropy T*S    EENTRO =        -0.00839992
  eigenvalues    EBANDS =        53.05498960
  atomic energy  EATOM  =      2236.38650011
  Solvation  Ediel_sol  =         0.00000000
  free energy    TOTEN  =       244.32969604 eV

  energy without entropy =      244.33809596  energy(sigma->0) =      244.33389600

[...]

 eigenvalue-minimisations  :  4258
 total energy-change (2. order) :-0.2391506E+03  (-0.2278348E+03)
 number of electron      34.0000000 magnetization
 augmentation part       34.0000000 magnetization

[...]

 Broyden mixing:
  rms(total) = 0.15045E+01    rms(broyden)= 0.15045E+01
  rms(prec ) = 0.15308E+01
  weight for this iteration     100.00

[...]

 eigenvalues of (default mixing * dielectric matrix)
  average eigenvalue GAMMA=   1.7884
  1.7884

[...]

 average (electrostatic) potential at core
  the test charge radii are     0.9406  1.0178  1.2059
  (the norm of the test charge is              1.0000)
       1 -97.9059       2 -68.0622       3 -75.2872       4 -75.2429

 E-fermi :  -1.6696     XC(G=0):  -4.2017     alpha+bet : -3.8008

 k-point     1 :       0.0000    0.0000    0.0000
  band No.  band energies     occupation
      1     -17.6731      2.00000
      2     -17.5368      2.00000
      3      -8.1218      2.00000
      4      -6.9737      2.00000
      5      -6.9701      2.00000
      6      -6.8507      2.00000
      7      -6.0121      2.00000
      8      -5.9806      2.00000
      9      -4.5909      2.00000
     10      -4.5769      2.00000
     11      -3.8582      2.00000
     12      -3.0313      2.00000
     13      -3.0117      2.00000
     14      -2.9089      2.00000
     15      -2.3591      2.00000
     16      -2.3542      2.00000
     17      -2.1680      2.00000
     18      -0.5323      0.00000
     19      -0.5061      0.00000
     20       1.8723      0.00000
     21       3.1713      0.00000
     22       3.7782      0.00000

[...]

 soft charge-density along one line, spin component           1
         0         1         2         3         4         5         6         7         8         9
 total charge-density along one line

------------------------ aborting loop because EDIFF is reached ----------------------------------------

         DFTD3 V3.0 Rev 1
 IVDW         = 11
 DF pbe
 parameters
 VDW_S6       =    1.0000
 VDW_S8       =    0.7220
 VDW_SR       =    1.2170
 rs18     =    1.0000
 alpha6   =   14.0000
 alpha8   =   16.0000
 k1-k3    =   16.0000    1.3333   -4.0000
 VDW_RADIUS   =   50.2022 A
 VDW_CNRADIUS =   21.1671 A
 Edisp (eV)   -1.21378

 E6    (eV) :    -0.3468
 E8    (eV) :    -0.8670
 % E8        : 71.43

  FORCE on cell =-STRESS in cart. coord.  units (eV):
  Direction    XX          YY          ZZ          XY          YZ          ZX
  Alpha Z    41.10196    41.10196    41.10196
  Ewald    7289.84401  7289.85979 -8797.46910    -1.37313     0.12521    -3.54947
  Hartree  7769.00099  7769.01255 -7581.54830    -0.58560     0.04397    -1.29158
  E(xc)    -140.74266  -140.74264  -141.27590     0.00710     0.00009    -0.00320
  Local  -15683.67108-15683.70027 15745.20876     2.05966    -0.16279     4.66739
  n-local   140.79963   140.79889   142.74586    -0.15026     0.00550    -0.13601
  augment    78.94815    78.94862    80.03276    -0.00788    -0.00127     0.03297
  Kinetic   504.19441   504.19586   510.44950    -0.14162    -0.00496     0.14425
  Fock        0.00000     0.00000     0.00000     0.00000     0.00000     0.00000
  vdW        -0.85818    -0.85804    -0.19965    -0.01109    -0.00011     0.00341
  Total      -1.38277    -1.38328    -0.95412    -0.20283     0.00564    -0.13222
  in kB      -9.38130    -9.38483    -6.47319    -1.37609     0.03828    -0.89706

 VOLUME and BASIS-vectors are now :
  energy-cutoff  :      400.00
  volume of cell :      236.15
      direct lattice vectors                 reciprocal lattice vectors
     3.692083289 -0.036629028  0.000000000     0.272358847  0.152107424  0.000000000
    -1.796041249  3.215935895  0.000000000     0.003102126  0.312683953  0.000000000
     0.000000000  0.000000000 20.000000000     0.000000000  0.000000000  0.050000000

[...]

 FORCES acting on ions
    electron-ion (+dipol)            ewald-force                    non-local-force                 convergence-correction
   -.817E+00 0.288E-01 0.960E+03   0.851E+00 -.301E-01 -.965E+03   -.140E-01 0.344E-03 0.513E+01   -.299E-06 0.255E-07 -.388E-03
   0.670E+00 -.235E-01 -.969E+03   -.694E+00 0.245E-01 0.972E+03   -.309E-02 0.215E-03 -.268E+01   -.236E-06 0.282E-07 -.385E-03
   0.256E+00 -.886E-02 -.550E+03   -.239E+00 0.848E-02 0.544E+03   -.350E-01 0.112E-02 0.625E+01   0.473E-06 -.871E-08 -.114E-02
   -.898E-01 0.294E-02 0.557E+03   0.815E-01 -.287E-02 -.551E+03   0.333E-01 -.105E-02 -.614E+01   0.127E-06 -.208E-08 -.115E-02
   0.188E-01 -.618E-03 -.256E+01   0.154E-13 0.127E-13 0.000E+00   -.188E-01 0.629E-03 0.256E+01   0.656E-07 0.429E-07 -.307E-02

 POSITION                                       TOTAL-FORCE (eV/Angst)
     -0.89783      1.60784      3.39123         0.019754     -0.000882      0.151065
     -0.89783      1.60784      7.69278        -0.026924      0.001128     -0.178801
      0.93154      0.52365      6.20213        -0.017516      0.000731     -0.107679
      0.96488      2.65540      4.71852         0.024685     -0.000976      0.135415
    total drift:                                0.000036      0.000011     -0.000136

  FREE ENERGIE OF THE ION-ELECTRON SYSTEM (eV)
  free  energy   TOTEN  =       -17.77344659 eV

  energy  without entropy=      -17.77344659  energy(sigma->0) =      -17.77344659

 Quasi-Newton relaxation of ions (Broydens 2nd method)
  g(Force)  = 0.419E-02   g(Stress)= 0.000E+00

 Reset! Starting new Quasi-Newton update for ions

[...]

         DFTD3 V3.0 Rev 1
 Edisp (eV)   -1.21460

[...]

 d Force = 0.3162780E-02[ 0.214E-02, 0.419E-02]  d Energy = 0.3175920E-02-0.131E-04
 d Force =-0.2184052E+02[-0.218E+02,-0.218E+02]  d Ewald  =-0.2184056E+02 0.444E-04

[...]

 retain information from N=  1 steps
 eigenvalues of (default step * inverse Hessian matrix)
  average eigenvalue of G=   1.0912
 eigenvalue spectrum of G is  1.0912

[...]

 d Force = 0.1479950E-02[-0.388E-05, 0.296E-02]  d Energy = 0.1503368E-02-0.234E-04
 d Force =-0.3332554E+02[-0.333E+02,-0.333E+02]  d Ewald  =-0.3332562E+02 0.781E-04

[...]

 d Force = 0.5839690E-05[ 0.438E-05, 0.730E-05]  d Energy = 0.5870039E-05-0.303E-07
 d Force = 0.3270081E+00[ 0.327E+00, 0.327E+00]  d Ewald  = 0.3270081E+00-0.149E-08

[...]

 d Force = 0.1248532E-05[ 0.501E-06, 0.200E-05]  d Energy = 0.1320967E-05-0.724E-07
 d Force =-0.1678407E+00[-0.168E+00,-0.168E+00]  d Ewald  =-0.1678407E+00-0.331E-09

[...]

 eigenvalue-minimisations  :  3368
 total energy-change (2. order) :-0.1339899E-06  (-0.1460928E-06)
 number of electron      33.9999997 magnetization
 augmentation part        3.8478090 magnetization

[...]

 Broyden mixing:
  rms(total) = 0.15573E-03    rms(broyden)= 0.15571E-03
  rms(prec ) = 0.16254E-03
  weight for this iteration     100.00

 eigenvalues of (default mixing * dielectric matrix)
  average eigenvalue GAMMA=   0.7763
  0.7763

[...]

--------------------------------------- Iteration      8(   3)  ---------------------------------------

 eigenvalue-minimisations  :  2260
 total energy-change (2. order) : 0.1771741E-07  (-0.5514451E-08)
 number of electron      33.9999997 magnetization
 augmentation part        3.8478090 magnetization

 DIPCOR: dipole corrections for dipol
 direction  3 min pos   227,
 dipolmoment           0.000000      0.000000     -0.038114 electrons x Angstroem
 Tr[quadrupol]       -81.649486

 energy correction for charged system         0.000000 eV
 dipol+quadrupol energy correction           -0.000557 eV
 added-field ion interaction         -0.644155 eV  (added to PSCEN)

 Free energy of the ion-electron system (eV)
  alpha Z        PSCENC =        40.45724897
  Ewald energy   TEWEN  =      5851.39357333
  -Hartree energ DENC   =     -8024.76428452
  -exchange      EXHF   =         0.00000000
  -V(xc)+E(xc)   XCENC  =        36.74090866
  PAW double counting   =      2722.10211999    -2665.32711915
  entropy T*S    EENTRO =        -0.00000000
  eigenvalues    EBANDS =      -213.55279881
  atomic energy  EATOM  =      2236.38650011
  Solvation  Ediel_sol  =         0.00000000
  free energy    TOTEN  =       -16.56385141 eV

  energy without entropy =      -16.56385141  energy(sigma->0) =      -16.56385141

 average (electrostatic) potential at core
  the test charge radii are     0.9406  1.0178  1.2059
  (the norm of the test charge is              1.0000)
       1 -97.8875       2 -68.0522       3 -75.2686       4 -75.2149

 E-fermi :  -1.6027     XC(G=0):  -4.1758     alpha+bet : -3.8258

[...]

 k-point    64 :      -0.1250   -0.1250    0.0000
  band No.  band energies     occupation
      1     -17.5035      2.00000
      2     -17.3976      2.00000
      3      -7.8469      2.00000
      4      -7.1514      2.00000
      5      -6.9670      2.00000
      6      -6.5040      2.00000
      7      -6.4042      2.00000
      8      -5.8722      2.00000
      9      -5.0653      2.00000
     10      -4.9668      2.00000
     11      -4.3845      2.00000
     12      -3.2093      2.00000
     13      -2.9582      2.00000
     14      -2.6475      2.00000
     15      -2.5477      2.00000
     16      -2.4584      2.00000
     17      -2.0966      2.00000
     18      -0.4518      0.00000
     19      -0.0257      0.00000
     20       3.4812      0.00000
     21       3.8531      0.00000
     22       4.3659      0.00000

 soft charge-density along one line, spin component           1
         0         1         2         3         4         5         6         7         8         9
 total charge-density along one line

------------------------ aborting loop because EDIFF is reached ----------------------------------------

         DFTD3 V3.0 Rev 1
 Edisp (eV)   -1.21602

 E6    (eV) :    -0.3475
 E8    (eV) :    -0.8685
 % E8        : 71.42

  FORCE on cell =-STRESS in cart. coord.  units (eV):
  Direction    XX          YY          ZZ          XY          YZ          ZX
  Alpha Z    41.10196    41.10196    41.10196
  Ewald    7366.70872  7366.71107 -8882.02639     0.48064     0.06794    -1.93001
  Hartree  7839.81296  7839.81733 -7654.87096     0.07907     0.02472    -0.72128
  E(xc)    -140.88059  -140.88063  -141.46546     0.00933     0.00018    -0.00481
  Local  -15831.30339-15831.31178 15901.91346    -0.35304    -0.08767     2.51214
  n-local   141.62691   141.62660   143.70706    -0.06887     0.00067    -0.01527
  augment    78.80503    78.80523    80.05705    -0.03472    -0.00051     0.01299
  Kinetic   504.20368   504.20582   511.66372    -0.23504    -0.00529     0.13835
  Fock        0.00000     0.00000     0.00000     0.00000     0.00000     0.00000
  vdW        -0.85477    -0.85457    -0.14019    -0.01281    -0.00013     0.00463
  Total      -0.77949    -0.77897    -0.05974    -0.13542    -0.00010    -0.00326
  in kB      -5.28843    -5.28485    -0.40531    -0.91878    -0.00065    -0.02212

 VOLUME and BASIS-vectors are now :
  energy-cutoff  :      400.00
  volume of cell :      236.15
      direct lattice vectors                 reciprocal lattice vectors
     3.692083289 -0.036629028  0.000000000     0.272358847  0.152107424  0.000000000
    -1.796041249  3.215935895  0.000000000     0.003102126  0.312683953  0.000000000
     0.000000000  0.000000000 20.000000000     0.000000000  0.000000000  0.050000000

  length of vectors
     3.692264982  3.683477684 20.000000000     0.311955141  0.312699340  0.050000000

 FORCES acting on ions
    electron-ion (+dipol)            ewald-force                    non-local-force                 convergence-correction
   -.564E+00 0.187E-01 0.962E+03   0.595E+00 -.196E-01 -.967E+03   -.277E-01 0.757E-03 0.504E+01   -.124E-02 -.125E-04 0.214E-03
   0.310E+00 -.137E-01 -.972E+03   -.314E+00 0.140E-01 0.974E+03   0.260E-02 -.167E-03 -.262E+01   0.424E-03 -.111E-05 -.105E-02
   0.198E+00 -.260E-02 -.551E+03   -.158E+00 0.860E-03 0.545E+03   -.409E-01 0.931E-03 0.627E+01   -.574E-03 0.418E-03 -.473E-02
   0.107E+00 -.355E-02 0.559E+03   -.123E+00 0.478E-02 -.553E+03   0.163E-01 -.433E-03 -.618E+01   0.435E-03 -.423E-03 -.353E-02
   0.506E-01 -.111E-02 -.250E+01   0.152E-13 0.126E-13 0.000E+00   -.497E-01 0.109E-02 0.251E+01   -.950E-03 -.181E-04 -.909E-02

 POSITION                                       TOTAL-FORCE (eV/Angst)
     -0.89209      1.60762      3.42086         0.000908     -0.000096     -0.000358
     -0.90493      1.60809      7.66104        -0.000628      0.000106      0.000711
      0.93009      0.52373      6.19438        -0.000521     -0.000401      0.000190
      0.96770      2.65530      4.72839         0.000241      0.000391     -0.000543
    total drift:                                0.000002     -0.000039     -0.000290

  FREE ENERGIE OF THE ION-ELECTRON SYSTEM (eV)
  free  energy   TOTEN  =       -17.77987430 eV

  energy  without entropy=      -17.77987430  energy(sigma->0) =      -17.77987430

 d Force = 0.2152480E-06[ 0.124E-06, 0.307E-06]  d Energy = 0.2026259E-06 0.126E-07
 d Force = 0.6199602E-01[ 0.620E-01, 0.620E-01]  d Ewald  = 0.6199602E-01 0.148E-09

 Quasi-Newton relaxation of ions (Broydens 2nd method)
  g(Force)  = 0.137E-06   g(Stress)= 0.000E+00

 retain information from N=  2 steps
 eigenvalues of (default step * inverse Hessian matrix)
  average eigenvalue of G=   1.7435
 eigenvalue spectrum of G is  2.5523  0.9348

 reached required accuracy - stopping structural energy minimisation
 writing wavefunctions