 vasp.5.4.4.16052018 (build Dec 07 2020 11:33:42) complex

 executed on             LinuxIFC date 2020.12.13  00:47:52

 INCAR:
 POTCAR:    PAW_PBE Cl 06Sep2000
 POTCAR:    PAW_PBE Br 06Sep2000
 POTCAR:    PAW_PBE Pt 04Feb2005

 POTCAR:    PAW_PBE Cl 06Sep2000
   VRHFIN =Cl: s2p5

   TITEL  = PAW_PBE Cl 06Sep2000
   POMASS =   35.453; ZVAL   =    7.000    mass and valenz
   ENMAX  =  262.472; ENMIN  =  196.854 eV

 POTCAR:    PAW_PBE Br 06Sep2000
   VRHFIN =Br: s2p5

   TITEL  = PAW_PBE Br 06Sep2000
   POMASS =   79.904; ZVAL   =    7.000    mass and valenz
   ENMAX  =  216.285; ENMIN  =  162.214 eV

 POTCAR:    PAW_PBE Pt 04Feb2005
   VRHFIN =Pt: s1d9

   TITEL  = PAW_PBE Pt 04Feb2005
   POMASS =  195.080; ZVAL   =   10.000    mass and valenz
   ENMAX  =  230.283; ENMIN  =  172.712 eV

  PAW_PBE Cl 06Sep2000                  :
  PAW_PBE Br 06Sep2000                  :
  PAW_PBE Pt 04Feb2005                  :

 POSCAR: ClBrPt2
  positions in direct lattice
  velocities in cartesian coordinates
 exchange correlation table for  LEXCH =        8
   RHO(1)=    0.500       N(1)  =     2000
   RHO(2)=  100.500       N(2)  =     4000

 ion  position               nearest neighbor table
   1  0.000  0.500  0.168-   4 2.49   4 2.49   4 2.49
   2  0.000  0.500  0.386-   3 2.58   3 2.58   3 2.58
   3  0.333  0.167  0.310-   4 2.58   4 2.58   4 2.58   2 2.58   2 2.58   2 2.58
   4  0.667  0.833  0.236-   1 2.49   1 2.49   1 2.49   3 2.58   3 2.58   3 2.58

IMPORTANT INFORMATION: All symmetrisations will be switched off!
NOSYMM: (Re-)initialisation of all symmetry stuff for point group C_1.

 KPOINTS: Automatic mesh

Automatic generation of k-mesh.
Space group operators:
 irot       det(A)        alpha          n_x          n_y          n_z        tau_x        tau_y        tau_z
    1     1.000000     0.000000     1.000000     0.000000     0.000000     0.000000     0.000000     0.000000

 Subroutine IBZKPT returns following result:

 Found     16 irreducible k-points:

 Following reciprocal coordinates:
            Coordinates               Weight
  0.000000  0.000000  0.000000      1.000000
  0.250000  0.000000  0.000000      1.000000
  0.500000  0.000000  0.000000      1.000000
 -0.250000 -0.000000  0.000000      1.000000
 -0.000000  0.250000  0.000000      1.000000
  0.250000  0.250000  0.000000      1.000000
  0.500000  0.250000  0.000000      1.000000
 -0.250000  0.250000  0.000000      1.000000
 -0.000000  0.500000  0.000000      1.000000
  0.250000  0.500000  0.000000      1.000000
  0.500000  0.500000  0.000000      1.000000
 -0.250000  0.500000  0.000000      1.000000
  0.000000 -0.250000  0.000000      1.000000
  0.250000 -0.250000  0.000000      1.000000
  0.500000 -0.250000  0.000000      1.000000
 -0.250000 -0.250000  0.000000      1.000000

 Following cartesian coordinates:
            Coordinates               Weight
  0.000000  0.000000  0.000000      1.000000
  0.069130  0.038994  0.000000      1.000000
  0.138259  0.077988  0.000000      1.000000
 -0.069130 -0.038994  0.000000      1.000000
  0.000795  0.079365  0.000000      1.000000
  0.069925  0.118359  0.000000      1.000000
  0.139055  0.157353  0.000000      1.000000
 -0.068334  0.040371  0.000000      1.000000
  0.001591  0.158730  0.000000      1.000000
  0.070720  0.197724  0.000000      1.000000
  0.139850  0.236718  0.000000      1.000000
 -0.067539  0.119736  0.000000      1.000000
 -0.000795 -0.079365  0.000000      1.000000
  0.068334 -0.040371  0.000000      1.000000
  0.137464 -0.001377  0.000000      1.000000
 -0.069925 -0.118359  0.000000      1.000000

 SYSTEM =  unknown system
 POSCAR =  ClBrPt2

 Startparameter for this run:
   NWRITE =      2    write-flag & timer
   PREC   = accura    normal or accurate (medium, high low for compatibility)
   ISTART =      0    job   : 0-new  1-cont  2-samecut
   ICHARG =      2    charge: 1-file 2-atom 10-const
   ISPIN  =      1    spin polarized calculation?
   LNONCOLLINEAR =      F non collinear calculations
   LSORBIT =      F    spin-orbit coupling
   INIWAV =      1    electr: 0-lowe 1-rand  2-diag
   LASPH  =      F    aspherical Exc in radial PAW
   METAGGA=      F    non-selfconsistent MetaGGA calc.

 Electronic Relaxation 1
   ENCUT  =  300.0 eV  22.05 Ry    4.70 a.u.   5.14  5.14 28.25*2*pi/ulx,y,z
   ENINI  =  300.0     initial cutoff
   ENAUG  =  503.9 eV  augmentation charge cutoff
   NELM   =     60;   NELMIN=  2; NELMDL= -5     # of ELM steps
   EDIFF  = 0.5E-04   stopping-criterion for ELM
   LREAL  =      F    real-space projection
   NLSPLINE    = F    spline interpolate recip. space projectors
   LCOMPAT=      F    compatible to vasp.4.4
   GGA_COMPAT  = T    GGA compatible to vasp.4.4-vasp.4.6
   LMAXPAW     = -100 max onsite density
   LMAXMIX     =    2 max onsite mixed and CHGCAR
   VOSKOWN=      0    Vosko Wilk Nusair interpolation
   ROPT   =    0.00000   0.00000   0.00000
 Ionic relaxation
   EDIFFG = 0.5E-03   stopping-criterion for IOM
   NSW    =    100    number of steps for IOM
   NBLOCK =      1;   KBLOCK =    100    inner block; outer block
   IBRION =      1    ionic relax: 0-MD 1-quasi-New 2-CG
   NFREE  =      0    steps in history (QN), initial steepest desc. (CG)
   ISIF   =      3    stress and relaxation
   IWAVPR =     11    prediction:  0-non 1-charg 2-wave 3-comb
   ISYM   =     -1    0-nonsym 1-usesym 2-fastsym
   LCORR  =      T    Harris-Foulkes like correction to forces

   POTIM  = 0.5000    time-step for ionic-motion
   TEIN   =    0.0    initial temperature
   TEBEG  =    0.0;   TEEND  =   0.0 temperature during run
   SMASS  =  -3.00    Nose mass-parameter (am)
   estimated Nose-frequenzy (Omega)   =  0.10E-29 period in steps =****** mass=  -0.302E-27a.u.
   SCALEE = 1.0000    scale energy and forces
   NPACO  =    256;   APACO  = 16.0  distance and # of slots for P.C.
   PSTRESS=    0.0 pullay stress

  Mass of Ions in am
   POMASS =  35.45 79.90195.08
  Ionic Valenz
   ZVAL   =   7.00  7.00 10.00
  Atomic Wigner-Seitz radii
  virtual crystal weights
   VCA    =   1.00  1.00  1.00
   NELECT =      34.0000    total number of electrons
   NUPDOWN=      -1.0000    fix difference up-down

 DOS related values:
   EMIN   =  10.00;   EMAX   =-10.00  energy-range for DOS
   EFERMI =   0.00
   ISMEAR =     0;   SIGMA  =   0.10  broadening in eV -4-tet -1-fermi 0-gaus

 Electronic relaxation 2 (details)
   IALGO  =     38    algorithm
   LDIAG  =      T    sub-space diagonalisation (order eigenvalues)
   LSUBROT=      F    optimize rotation matrix (better conditioning)
   TURBO    =      0    0=normal 1=particle mesh
   IRESTART =      0    0=no restart 2=restart with 2 vectors
   NREBOOT  =      0    no. of reboots
   NMIN     =      0    reboot dimension
   EREF     =   0.00    reference energy to select bands
   IMIX   =      4    mixing-type and parameters
     AMIX     =   0.40;   BMIX     =  1.00
     AMIX_MAG =   1.60;   BMIX_MAG =  1.00
     AMIN     =   0.10
     WC   =   100.;   INIMIX=   1;  MIXPRE=   1;  MAXMIX= -45

 Intra band minimization:
   WEIMIN = 0.0010     energy-eigenvalue tresh-hold
   EBREAK =  0.57E-06  absolut break condition
   DEPER  =   0.30     relativ break condition

   TIME   =   0.40     timestep for ELM

  volume/ion in A,a.u.               =      57.28       386.56
  Fermi-wavevector in a.u.,A,eV,Ry     =   0.866713  1.637850 10.220584  0.751192
  Thomas-Fermi vector in A             =   1.985142

 Write flags
   LWAVE        =      T    write WAVECAR
   LDOWNSAMPLE  =      F    k-point downsampling of WAVECAR
   LCHARG       =      T    write CHGCAR
   LVTOT        =      F    write LOCPOT, total local potential
   LVHAR        =      F    write LOCPOT, Hartree potential only
   LELF         =      F    write electronic localiz. function (ELF)
   LORBIT       =      0    0 simple, 1 ext, 2 COOP (PROOUT), +10 PAW based schemes

 Dipole corrections
   LMONO  =      F    monopole corrections only (constant potential shift)
   LDIPOL =      T    correct potential (dipole corrections)
   IDIPOL =      3    1-x, 2-y, 3-z, 4-all directions
   EPSILON=  1.0000000 bulk dielectric constant

 Exchange correlation treatment:
   GGA     =    --    GGA type
   VOSKOWN=      0    Vosko Wilk Nusair interpolation
   LHFCALC =     F    Hartree Fock is set to
   LHFONE  =     F    Hartree Fock one center treatment
   AEXX    =    0.0000 exact exchange contribution

 Linear response parameters
   LEPSILON=     F    determine dielectric tensor
   LRPA    =     F    only Hartree local field effects (RPA)
   LNABLA  =     F    use nabla operator in PAW spheres
   LVEL    =     F    velocity operator in full k-point grid
   LINTERFAST=   F  fast interpolation
   KINTER  =     0    interpolate to denser k-point grid
   CSHIFT  =0.1000    complex shift for real part using Kramers Kronig
   OMEGAMAX=  -1.0    maximum frequency
   DEG_THRESHOLD= 0.2000000E-02 threshold for treating states as degnerate
   RTIME   =   -0.100 relaxation time in fs
  (WPLASMAI=    0.000 imaginary part of plasma frequency in eV, 0.658/RTIME)
   DFIELD  = 0.0000000 0.0000000 0.0000000 field for delta impulse in time

 Orbital magnetization related:
   ORBITALMAG=     F  switch on orbital magnetization
   LCHIMAG   =     F  perturbation theory with respect to B field
   DQ        =  0.001000  dq finite difference perturbation B field
   LLRAUG    =     F  two centre corrections for induced B field

 quasi-Newton-method for relaxation of ions
 charge density and potential will be updated during run
 non-spin polarized calculation
 Variant of blocked Davidson
 Davidson routine will perform the subspace rotation
 perform sub-space diagonalisation
    after iterative eigenvector-optimisation
 modified Broyden-mixing scheme, WC =      100.0
 initial mixing is a Kerker type mixing with AMIX =  0.4000 and BMIX =      1.0000
 Hartree-type preconditioning will be used
 using additional bands            5
 reciprocal scheme for non local part
 use partial core corrections
 calculate Harris-corrections to forces
   (improved forces if not selfconsistent)
 use gradient corrections
 use of overlap-Matrix (Vanderbilt PP)
 Gauss-broadening in eV      SIGMA  =   0.10

  energy-cutoff  :      300.00
  volume of cell :      229.13
      direct lattice vectors                 reciprocal lattice vectors
     3.636944978 -0.036443352  0.000000000     0.276518965  0.155975300  0.000000000
    -1.786911496  3.167904907  0.000000000     0.003181054  0.317460370  0.000000000
     0.000000000  0.000000000 20.000000000     0.000000000  0.000000000  0.050000000

  length of vectors
     3.637127560  3.637124440 20.000000000     0.317476034  0.317476307  0.050000000

 k-points in units of 2pi/SCALE and weight: Automatic mesh
   0.00000000  0.00000000  0.00000000       0.062
   0.06912974  0.03899383  0.00000000       0.062
   0.13825948  0.07798765  0.00000000       0.062
  -0.06912974 -0.03899383  0.00000000       0.062
   0.00079526  0.07936509  0.00000000       0.062
   0.06992500  0.11835892  0.00000000       0.062
   0.13905475  0.15735274  0.00000000       0.062
  -0.06833448  0.04037127  0.00000000       0.062
   0.00159053  0.15873018  0.00000000       0.062
[...]
   0.25000000  0.00000000  0.00000000       0.062
   0.50000000  0.00000000  0.00000000       0.062
  -0.25000000 -0.00000000  0.00000000       0.062
  -0.00000000  0.25000000  0.00000000       0.062
   0.25000000  0.25000000  0.00000000       0.062
   0.50000000  0.25000000  0.00000000       0.062
  -0.25000000  0.25000000  0.00000000       0.062
  -0.00000000  0.50000000  0.00000000       0.062
   0.25000000  0.50000000  0.00000000       0.062
   0.50000000  0.50000000  0.00000000       0.062
  -0.25000000  0.50000000  0.00000000       0.062
   0.00000000 -0.25000000  0.00000000       0.062
   0.25000000 -0.25000000  0.00000000       0.062
   0.50000000 -0.25000000  0.00000000       0.062
  -0.25000000 -0.25000000  0.00000000       0.062

 position of ions in fractional coordinates (direct lattice)
   0.00003284  0.49996180  0.16834626
   0.00003221  0.49995994  0.38572384
   0.33336542  0.16662742  0.31048675
   0.66669892  0.83329448  0.23567645

 position of ions in cartesian coordinates  (Angst):
  -0.89326804  1.58383024  3.36692514
  -0.89326702  1.58382437  7.71447671
   0.91468324  0.51571087  6.20973506
   0.93572381  2.61550093  4.71352901

 k-point  1 :   0.0000 0.0000 0.0000  plane waves:    2685
 k-point  2 :   0.2500 0.0000 0.0000  plane waves:    2699
 k-point  3 :   0.5000 0.0000 0.0000  plane waves:    2710
 k-point  4 :  -0.2500-0.0000 0.0000  plane waves:    2699
 k-point  5 :  -0.0000 0.2500 0.0000  plane waves:    2699
 k-point  6 :   0.2500 0.2500 0.0000  plane waves:    2719
 k-point  7 :   0.5000 0.2500 0.0000  plane waves:    2719
 k-point  8 :  -0.2500 0.2500 0.0000  plane waves:    2699
 k-point  9 :  -0.0000 0.5000 0.0000  plane waves:    2710
 k-point 10 :   0.2500 0.5000 0.0000  plane waves:    2719
 k-point 11 :   0.5000 0.5000 0.0000  plane waves:    2710
 k-point 12 :  -0.2500 0.5000 0.0000  plane waves:    2719
 k-point 13 :   0.0000-0.2500 0.0000  plane waves:    2699
 k-point 14 :   0.2500-0.2500 0.0000  plane waves:    2699
 k-point 15 :   0.5000-0.2500 0.0000  plane waves:    2719
 k-point 16 :  -0.2500-0.2500 0.0000  plane waves:    2719

 maximum and minimum number of plane-waves per node :      2719     2685

 maximum number of plane-waves:      2719
 maximum index in each direction:
   IXMAX=    5   IYMAX=    5   IZMAX=   28
   IXMIN=   -5   IYMIN=   -5   IZMIN=  -28

 serial   3D FFT for wavefunctions
 parallel 3D FFT for charge:
    minimum data exchange during FFTs selected (reduces bandwidth)

 Broyden mixing: mesh for mixing (old mesh)
   NGX = 11   NGY = 11   NGZ = 57
  (NGX  = 48   NGY  = 48   NGZ  =240)
  gives a total of   6897 points

 initial charge density was supplied:
 charge density of overlapping atoms calculated
 number of electron      34.0000000 magnetization
 keeping initial charge density in first step

 Maximum index for augmentation-charges         8857 (set IRDMAX)

 First call to EWALD:  gamma=   0.290
 Maximum number of real-space cells 5x 5x 1
 Maximum number of reciprocal cells 2x 2x 8

--------------------------------------- Iteration      1(   1)  ---------------------------------------

 eigenvalue-minimisations  :   704
 total energy-change (2. order) : 0.2236010E+03  (-0.1021711E+04)
 number of electron      34.0000000 magnetization
 augmentation part       34.0000000 magnetization

 DIPCOR: dipole corrections for dipol
 direction  3 min pos   183,
 dipolmoment           0.000000      0.000000     -0.000023 electrons x Angstroem
 Tr[quadrupol]       -79.332345

 energy correction for charged system         0.000000 eV
 dipol+quadrupol energy correction           -0.000000 eV
 added-field ion interaction          0.000200 eV  (added to PSCEN)

 Free energy of the ion-electron system (eV)
  alpha Z        PSCENC =        42.36266416
  Ewald energy   TEWEN  =      5952.89720353
  -Hartree energ DENC   =     -8142.22992348
  -exchange      EXHF   =         0.00000000
  -V(xc)+E(xc)   XCENC  =        37.15949560
  PAW double counting   =      2012.60260865    -1949.97488812
  entropy T*S    EENTRO =        -0.01089837
  eigenvalues    EBANDS =        34.49019271
  atomic energy  EATOM  =      2236.30457717
  Solvation  Ediel_sol  =         0.00000000
  free energy    TOTEN  =       223.60103184 eV

  energy without entropy =      223.61193021  energy(sigma->0) =      223.60648103

[...]

 eigenvalue-minimisations  :  1052
 total energy-change (2. order) :-0.2199120E+03  (-0.2082443E+03)
 number of electron      34.0000000 magnetization
 augmentation part       34.0000000 magnetization

[...]

 Broyden mixing:
  rms(total) = 0.15767E+01    rms(broyden)= 0.15765E+01
  rms(prec ) = 0.16007E+01
  weight for this iteration     100.00

[...]

 eigenvalues of (default mixing * dielectric matrix)
  average eigenvalue GAMMA=   1.8580
  1.8580

[...]

 eigenvalue-minimisations  :   778
 total energy-change (2. order) :-0.2833822E-04  (-0.1756430E-04)
 number of electron      34.0000006 magnetization
 augmentation part        3.8492248 magnetization

[...]

 average (electrostatic) potential at core
  the test charge radii are     0.9406  1.0178  1.2059
  (the norm of the test charge is              1.0000)
       1 -97.7940       2 -67.9463       3 -75.1168       4 -75.0687

 E-fermi :  -1.4566     XC(G=0):  -4.3454     alpha+bet : -3.9544

 k-point     1 :       0.0000    0.0000    0.0000
  band No.  band energies     occupation
      1     -17.6290      2.00000
      2     -17.4927      2.00000
      3      -8.1183      2.00000
      4      -6.8782      2.00000
      5      -6.8782      2.00000
      6      -6.8686      2.00000
      7      -5.8567      2.00000
      8      -5.8567      2.00000
      9      -4.4507      2.00000
     10      -4.4507      2.00000
     11      -3.8185      2.00000
     12      -2.8548      2.00000
     13      -2.8548      2.00000
     14      -2.7585      2.00000
     15      -2.1672      2.00000
     16      -2.1672      2.00000
     17      -2.0837      2.00000
     18      -0.2839      0.00000
     19      -0.2839      0.00000
     20       2.1255      0.00000
     21       3.1998      0.00000
     22       3.8051      0.00000

[...]

 soft charge-density along one line, spin component           1
         0         1         2         3         4         5         6         7         8         9
 total charge-density along one line

------------------------ aborting loop because EDIFF is reached ----------------------------------------

         DFTD3 V3.0 Rev 1
 IVDW         = 11
 DF pbe
 parameters
 VDW_S6       =    1.0000
 VDW_S8       =    0.7220
 VDW_SR       =    1.2170
 rs18     =    1.0000
 alpha6   =   14.0000
 alpha8   =   16.0000
 k1-k3    =   16.0000    1.3333   -4.0000
 VDW_RADIUS   =   50.2022 A
 VDW_CNRADIUS =   21.1671 A
 Edisp (eV)   -1.23638

 E6    (eV) :    -0.3570
 E8    (eV) :    -0.8794
 % E8        : 71.12

  FORCE on cell =-STRESS in cart. coord.  units (eV):
  Direction    XX          YY          ZZ          XY          YZ          ZX
  Alpha Z    42.36246    42.36246    42.36246
  Ewald    7469.39203  7469.39096 -8985.88629    -0.00013     0.00000    -0.00013
  Hartree  7948.52495  7948.52460 -7764.87619    -0.00004    -0.00001    -0.00004
  E(xc)    -141.02240  -141.02241  -141.47957    -0.00000    -0.00000    -0.00000
  Local  -16045.18558-16045.18426 16117.01458     0.00022    -0.00006     0.00017
  n-local   141.92157   141.92158   143.38308    -0.00000     0.00004    -0.00001
  augment    78.81542    78.81540    79.70729    -0.00005     0.00000    -0.00001
  Kinetic   505.88225   505.88242   509.77679     0.00000     0.00002    -0.00001
  Fock        0.00000     0.00000     0.00000     0.00000     0.00000     0.00000
  vdW        -0.77824    -0.77824    -0.23830     0.00000     0.00000    -0.00000
  Total      -0.08754    -0.08748    -0.23616    -0.00001    -0.00000    -0.00002
  in kB      -0.61210    -0.61170    -1.65134    -0.00004    -0.00002    -0.00017

 VOLUME and BASIS-vectors are now :
  energy-cutoff  :      300.00
  volume of cell :      229.13
      direct lattice vectors                 reciprocal lattice vectors
     3.636944978 -0.036443352  0.000000000     0.276518965  0.155975300  0.000000000
    -1.786911496  3.167904907  0.000000000     0.003181054  0.317460370  0.000000000
     0.000000000  0.000000000 20.000000000     0.000000000  0.000000000  0.050000000

[...]

 FORCES acting on ions
    electron-ion (+dipol)            ewald-force                    non-local-force                 convergence-correction
   0.172E-03 -.128E-03 0.991E+03   -.703E-04 -.899E-05 -.997E+03   -.818E-04 0.121E-03 0.559E+01   -.459E-04 0.387E-04 -.963E-01
   0.860E-04 0.441E-04 -.100E+04   -.130E-03 0.356E-04 0.100E+04   0.163E-04 -.342E-04 -.272E+01   0.326E-04 -.442E-04 0.114E+00
   -.407E-04 0.248E-04 -.568E+03   0.109E-03 -.775E-04 0.561E+03   0.317E-04 -.198E-04 0.653E+01   -.775E-04 0.601E-04 0.170E+00
   0.216E-04 0.134E-04 0.573E+03   0.909E-04 0.508E-04 -.567E+03   0.232E-04 0.211E-04 -.642E+01   -.142E-03 -.710E-04 -.691E-01
   0.239E-03 -.461E-04 -.310E+01   0.453E-15 0.113E-13 0.000E+00   -.106E-04 0.885E-04 0.298E+01   -.233E-03 -.164E-04 0.118E+00

 POSITION                                       TOTAL-FORCE (eV/Angst)
     -0.89327      1.58383      3.36693        -0.000025      0.000016      0.002190
     -0.89327      1.58382      7.71448         0.000006     -0.000005     -0.004970
      0.91468      0.51571      6.20974         0.000024     -0.000019     -0.020007
      0.93572      2.61550      4.71353        -0.000005      0.000008      0.022788
    total drift:                               -0.000005      0.000026     -0.004510

  FREE ENERGIE OF THE ION-ELECTRON SYSTEM (eV)
  free  energy   TOTEN  =       -17.79954304 eV

  energy  without entropy=      -17.79954304  energy(sigma->0) =      -17.79954304

 Quasi-Newton relaxation of ions (Broydens 2nd method)
  g(Force)  = 0.458E-04   g(Stress)= 0.924E-04

 Reset! Starting new Quasi-Newton update for ions

[...]

 Broyden mixing:
  rms(total) = 0.58183E-02    rms(broyden)= 0.58175E-02
  rms(prec ) = 0.62728E-02
  weight for this iteration     100.00

 eigenvalues of (default mixing * dielectric matrix)
  average eigenvalue GAMMA=   1.0877
  1.0877

[...]

--------------------------------------- Iteration      2(   3)  ---------------------------------------

 eigenvalue-minimisations  :   622
 total energy-change (2. order) : 0.1938710E-04  (-0.1126052E-04)
 number of electron      34.0000006 magnetization
 augmentation part        3.8473281 magnetization

 DIPCOR: dipole corrections for dipol
 direction  3 min pos   199,
 dipolmoment           0.000000      0.000000     -0.038285 electrons x Angstroem
 Tr[quadrupol]       -79.368236

 energy correction for charged system         0.000000 eV
 dipol+quadrupol energy correction           -0.000579 eV
 added-field ion interaction         -1.035062 eV  (added to PSCEN)

 Free energy of the ion-electron system (eV)
  alpha Z        PSCENC =        41.37159380
  Ewald energy   TEWEN  =      5962.30349313
  -Hartree energ DENC   =     -8140.76356700
  -exchange      EXHF   =         0.00000000
  -V(xc)+E(xc)   XCENC  =        36.86811848
  PAW double counting   =      2745.16481087    -2688.48691629
  entropy T*S    EENTRO =        -0.00000000
  eigenvalues    EBANDS =      -209.32446734
  atomic energy  EATOM  =      2236.30457717
  Solvation  Ediel_sol  =         0.00000000
  free energy    TOTEN  =       -16.56235719 eV

  energy without entropy =      -16.56235719  energy(sigma->0) =      -16.56235719

 average (electrostatic) potential at core
  the test charge radii are     0.9406  1.0178  1.2059
  (the norm of the test charge is              1.0000)
       1 -97.7685       2 -67.9317       3 -75.1060       4 -75.0447

 E-fermi :  -1.4372     XC(G=0):  -4.3385     alpha+bet : -3.9582

[...]

 k-point    16 :      -0.2500   -0.2500    0.0000
  band No.  band energies     occupation
      1     -17.1336      2.00000
      2     -16.9872      2.00000
      3      -7.5233      2.00000
      4      -7.0661      2.00000
      5      -7.0006      2.00000
      6      -6.2993      2.00000
      7      -6.1998      2.00000
      8      -5.8682      2.00000
      9      -5.3669      2.00000
     10      -5.1334      2.00000
     11      -3.8071      2.00000
     12      -3.4180      2.00000
     13      -3.1875      2.00000
     14      -2.9740      2.00000
     15      -2.9204      2.00000
     16      -2.3198      2.00000
     17      -2.0030      2.00000
     18      -0.2529      0.00000
     19       1.3171      0.00000
     20       3.0811      0.00000
     21       4.6011      0.00000
     22       5.5598      0.00000

 soft charge-density along one line, spin component           1
         0         1         2         3         4         5         6         7         8         9
 total charge-density along one line

------------------------ aborting loop because EDIFF is reached ----------------------------------------

         DFTD3 V3.0 Rev 1
 Edisp (eV)   -1.23728

 E6    (eV) :    -0.3574
 E8    (eV) :    -0.8799
 % E8        : 71.11

  FORCE on cell =-STRESS in cart. coord.  units (eV):
  Direction    XX          YY          ZZ          XY          YZ          ZX
  Alpha Z    42.40724    42.40724    42.40724
  Ewald    7479.70139  7479.18681 -8996.58511    -0.00042     0.65812     0.01940
  Hartree  7957.90545  7957.65724 -7774.40238    -0.00015     0.24740     0.00731
  E(xc)    -141.05295  -141.04386  -141.50193     0.00000    -0.00038    -0.00001
  Local  -16065.03596-16064.13254 16137.14166     0.00056    -0.89123    -0.02629
  n-local   142.08074   141.97319   143.48255    -0.00001     0.02932     0.00084
  augment    78.79595    78.80361    79.70026    -0.00000    -0.00940    -0.00028
  Kinetic   505.90624   505.88340   509.75176     0.00001    -0.03780    -0.00113
  Fock        0.00000     0.00000     0.00000     0.00000     0.00000     0.00000
  vdW        -0.77405    -0.77730    -0.23608     0.00000    -0.00058    -0.00002
  Total      -0.06595    -0.04221    -0.24204    -0.00002    -0.00456    -0.00018
  in kB      -0.46167    -0.29545    -1.69425    -0.00013    -0.03189    -0.00124

 VOLUME and BASIS-vectors are now :
  energy-cutoff  :      300.00
  volume of cell :      228.89
      direct lattice vectors                 reciprocal lattice vectors
     3.633105295 -0.036443352  0.000000000     0.276811207  0.155975300  0.000000000
    -1.785024975  3.167904907  0.000000000     0.003184416  0.317460370  0.000000000
     0.000000000  0.000000000 20.000000000     0.000000000  0.000000000  0.050000000

  length of vectors
     3.633288070  3.636197968 20.000000000     0.317730607  0.317476341  0.050000000

 FORCES acting on ions
    electron-ion (+dipol)            ewald-force                    non-local-force                 convergence-correction
   0.505E-02 0.168E+00 0.993E+03   -.466E-02 -.155E+00 -.998E+03   -.655E-04 -.137E-02 0.562E+01   -.342E-03 -.109E-01 -.711E-01
   -.397E-02 -.135E+00 -.100E+04   0.373E-02 0.127E+00 0.100E+04   0.691E-04 0.208E-02 -.270E+01   0.258E-03 0.838E-02 -.190E-01
   -.143E-02 -.496E-01 -.568E+03   0.130E-02 0.459E-01 0.561E+03   0.213E-03 0.771E-02 0.658E+01   0.273E-04 0.363E-03 -.352E+00
   0.413E-03 0.190E-01 0.574E+03   -.372E-03 -.171E-01 -.567E+03   -.182E-03 -.705E-02 -.646E+01   0.943E-05 -.607E-04 -.288E+00
   0.628E-04 0.204E-02 -.231E+01   0.294E-14 -.151E-13 0.000E+00   0.341E-04 0.137E-02 0.303E+01   -.478E-04 -.224E-02 -.730E+00

 POSITION                                       TOTAL-FORCE (eV/Angst)
     -0.89233      1.58383      3.36703        -0.000022     -0.000344      0.009988
     -0.89232      1.58382      7.71424         0.000069      0.001811      0.005489
      0.91372      0.51571      6.20877         0.000095      0.003969      0.012247
      0.93474      2.61550      4.71463        -0.000142     -0.005436     -0.027723
    total drift:                                0.000049      0.001178     -0.003840

  FREE ENERGIE OF THE ION-ELECTRON SYSTEM (eV)
  free  energy   TOTEN  =       -17.79963685 eV

  energy  without entropy=      -17.79963685  energy(sigma->0) =      -17.79963685

 d Force = 0.1610223E-05[-0.426E-04, 0.458E-04]  d Energy = 0.9380953E-04-0.922E-04
 d Force =-0.1510911E+01[-0.151E+01,-0.151E+01]  d Ewald  =-0.9406290E+01 0.790E+01

 Quasi-Newton relaxation of ions (Broydens 2nd method)
  g(Force)  = 0.529E-04   g(Stress)= 0.525E-04

 retain information from N=  1 steps
 eigenvalues of (default step * inverse Hessian matrix)
  average eigenvalue of G=   3.9249
 eigenvalue spectrum of G is  3.9249

 reached required accuracy - stopping structural energy minimisation
 writing wavefunctions